LAMMPS (2 Aug 2023)
#This program is free software: you can redistribute it and/or modify
#    it under the terms of the GNU General Public License as published by
#    the Free Software Foundation, either version 3 of the License, or
#    (at your option) any later version.
#
#    This program is distributed in the hope that it will be useful,
#    but WITHOUT ANY WARRANTY; without even the implied warranty of
#    MERCHANTABILITY or FITNESS FOR A PARTICULAR PURPOSE.  See the
#    GNU General Public License for more details.

############## Nbb=3 Janani Sampath#################


units		lj
atom_style	full

read_data     input_semiflexible_dispersity.lammps #input_SemiFlexible.lammps
Reading data file ...
  orthogonal box = (-24.750299 -24.750299 -24.750299) to (24.750299 24.750299 24.750299)
  1 by 1 by 1 MPI processor grid
  reading atoms ...
  103098 atoms
  scanning bonds ...
  1 = max bonds/atom
  scanning angles ...
  1 = max angles/atom
  reading bonds ...
  102098 bonds
  reading angles ...
  101098 angles
Finding 1-2 1-3 1-4 neighbors ...
  special bond factors lj:    0        0        0       
  special bond factors coul:  0        0        0       
     2 = max # of 1-2 neighbors
     2 = max # of 1-3 neighbors
     4 = max # of 1-4 neighbors
     6 = max # of special neighbors
  special bonds CPU = 0.025 seconds
  read_data CPU = 0.673 seconds


pair_style      soft 1.266 # soft 1.266
pair_coeff      * * 0.0
variable        prefactor equal 40.0*elapsed/100000
fix             softpushoff all adapt 1 pair soft a * * v_prefactor

bond_style	fene
bond_coeff	1 30.0 1.5 1.0 1.0
special_bonds	fene
Finding 1-2 1-3 1-4 neighbors ...
  special bond factors lj:    0        1        1       
  special bond factors coul:  0        1        1       
     2 = max # of 1-2 neighbors
     6 = max # of special neighbors
  special bonds CPU = 0.009 seconds

angle_style	cosine
angle_coeff	1 1.5

#dihedral_style	harmonic
#dihedral_coeff	1 80.0 1 2



#neighbor	1.0 bin

neigh_modify	every 1 delay 0 check yes


fix		fix1 all nvt temp 1.0 1.0 1.0


timestep	0.001


thermo		1000

thermo_style 	custom step temp press ke pe ebond eimp evdwl ecoul elong lx ly lz


#################Soft Pushoff#################

dump		dump1 all custom 50000 pushoff_semi_poly.dump id mol type q xs ys zs ix iy iz

run		100000
Generated 0 of 0 mixed pair_coeff terms from geometric mixing rule
WARNING: Communication cutoff 1.566 is shorter than a bond length based estimate of 1.7550000000000001. This may lead to errors. (src/comm.cpp:723)
Neighbor list info ...
  update: every = 1 steps, delay = 0 steps, check = yes
  max neighbors/atom: 2000, page size: 100000
  master list distance cutoff = 1.566
  ghost atom cutoff = 1.566
  binsize = 0.783, bins = 64 64 64
  1 neighbor lists, perpetual/occasional/extra = 1 0 0
  (1) pair soft, perpetual
      attributes: half, newton on
      pair build: half/bin/newton
      stencil: half/bin/3d
      bin: standard
WARNING: Communication cutoff 1.566 is shorter than a bond length based estimate of 1.7550000000000001. This may lead to errors. (src/comm.cpp:723)
Per MPI rank memory allocation (min/avg/max) = 60.69 | 60.69 | 60.69 Mbytes
   Step          Temp          Press          KinEng         PotEng         E_bond        E_impro         E_vdwl         E_coul         E_long           Lx             Ly             Lz      
         0   0             -2.2859765      0              21.513436      20.045256      0              0              0              0              49.500597      49.500597      49.500597    
      1000   0.57097625     0.55222162     0.85645606     21.549427      20.043187      0              0.58845031     0              0              49.500597      49.500597      49.500597    
      2000   0.87506615     0.9646515      1.3125865      21.659392      20.060343      0              0.733674       0              0              49.500597      49.500597      49.500597    
      3000   1.0194276      1.3079362      1.5291265      21.866979      20.080253      0              0.9169555      0              0              49.500597      49.500597      49.500597    
      4000   1.0697162      1.6316619      1.6045588      22.062934      20.101939      0              1.0733891      0              0              49.500597      49.500597      49.500597    
      5000   1.0706689      1.9643238      1.6059878      22.204967      20.120792      0              1.1839449      0              0              49.500597      49.500597      49.500597    
      6000   1.0757632      2.2974454      1.6136291      22.305888      20.140081      0              1.2560423      0              0              49.500597      49.500597      49.500597    
      7000   1.0633988      2.651118       1.5950827      22.410455      20.157313      0              1.3401757      0              0              49.500597      49.500597      49.500597    
      8000   1.0485531      2.9780627      1.5728144      22.512802      20.176832      0              1.4246406      0              0              49.500597      49.500597      49.500597    
      9000   1.0439282      3.3333973      1.5658771      22.594732      20.195444      0              1.488251       0              0              49.500597      49.500597      49.500597    
     10000   1.0449927      3.6708011      1.5674738      22.656621      20.214118      0              1.5337029      0              0              49.500597      49.500597      49.500597    
     11000   1.0562356      3.9997017      1.5843381      22.686804      20.232218      0              1.5530357      0              0              49.500597      49.500597      49.500597    
     12000   1.04156        4.3321159      1.5623249      22.745513      20.251265      0              1.5973961      0              0              49.500597      49.500597      49.500597    
     13000   1.0323427      4.6003531      1.548499       22.797805      20.268354      0              1.6384044      0              0              49.500597      49.500597      49.500597    
     14000   1.0305701      4.9447286      1.5458402      22.839767      20.28881       0              1.6678881      0              0              49.500597      49.500597      49.500597    
     15000   1.0305421      5.2435114      1.5457982      22.873657      20.305836      0              1.6925183      0              0              49.500597      49.500597      49.500597    
     16000   1.0281812      5.5043336      1.5422568      22.902139      20.323449      0              1.7092145      0              0              49.500597      49.500597      49.500597    
     17000   1.0157193      5.844311       1.5235641      22.94654       20.339924      0              1.7414486      0              0              49.500597      49.500597      49.500597    
     18000   1.014302       6.1433836      1.5214383      22.980437      20.3537        0              1.76916        0              0              49.500597      49.500597      49.500597    
     19000   1.0261478      6.3852544      1.5392067      22.989609      20.369687      0              1.7701628      0              0              49.500597      49.500597      49.500597    
     20000   1.0163764      6.6745172      1.5245498      23.019696      20.384532      0              1.790108       0              0              49.500597      49.500597      49.500597    
     21000   1.0082099      6.9450363      1.5123002      23.055055      20.394012      0              1.8198355      0              0              49.500597      49.500597      49.500597    
     22000   1.020895       7.1989821      1.5313276      23.061821      20.406013      0              1.8202032      0              0              49.500597      49.500597      49.500597    
     23000   1.0116885      7.4307021      1.517518       23.090883      20.414783      0              1.8447236      0              0              49.500597      49.500597      49.500597    
     24000   1.0074703      7.7024885      1.5111908      23.114965      20.424806      0              1.86256        0              0              49.500597      49.500597      49.500597    
     25000   1.0123337      7.9598503      1.5184858      23.128881      20.437108      0              1.8711465      0              0              49.500597      49.500597      49.500597    
     26000   1.0059142      8.2211701      1.5088566      23.154231      20.44402       0              1.891591       0              0              49.500597      49.500597      49.500597    
     27000   1.0097768      8.4862408      1.5146505      23.165659      20.449772      0              1.9034891      0              0              49.500597      49.500597      49.500597    
     28000   1.0075473      8.7092726      1.5113063      23.185436      20.45461       0              1.920281       0              0              49.500597      49.500597      49.500597    
     29000   1.0059406      8.9559         1.5088962      23.201516      20.458237      0              1.9355256      0              0              49.500597      49.500597      49.500597    
     30000   1.0056818      9.1427173      1.5085081      23.217878      20.462377      0              1.9513375      0              0              49.500597      49.500597      49.500597    
     31000   1.0068029      9.422926       1.5101898      23.230575      20.466862      0              1.9620675      0              0              49.500597      49.500597      49.500597    
     32000   1.0035002      9.6536083      1.5052357      23.249835      20.47248       0              1.9781447      0              0              49.500597      49.500597      49.500597    
     33000   1.0076274      9.8637688      1.5114265      23.259436      20.471241      0              1.9904725      0              0              49.500597      49.500597      49.500597    
     34000   1.0047834      10.089492      1.5071605      23.27791       20.475907      0              2.0068803      0              0              49.500597      49.500597      49.500597    
     35000   1.0059912      10.365469      1.5089722      23.290375      20.479963      0              2.018535       0              0              49.500597      49.500597      49.500597    
     36000   1.0049874      10.55335       1.5074665      23.304211      20.483299      0              2.0290172      0              0              49.500597      49.500597      49.500597    
     37000   1.0057616      10.735457      1.5086278      23.317692      20.481352      0              2.0465874      0              0              49.500597      49.500597      49.500597    
     38000   1.0062712      10.977172      1.5093922      23.329892      20.480225      0              2.0637968      0              0              49.500597      49.500597      49.500597    
     39000   1.0015639      11.201255      1.5023312      23.349719      20.48897       0              2.0741119      0              0              49.500597      49.500597      49.500597    
     40000   1.0044037      11.44662       1.506591       23.359267      20.486581      0              2.085904       0              0              49.500597      49.500597      49.500597    
     41000   1.0065196      11.620514      1.5097647      23.369154      20.487673      0              2.0963775      0              0              49.500597      49.500597      49.500597    
     42000   1.0004045      11.871989      1.5005922      23.390352      20.49391       0              2.1137185      0              0              49.500597      49.500597      49.500597    
     43000   1.0029837      12.015198      1.504461       23.398733      20.489784      0              2.127916       0              0              49.500597      49.500597      49.500597    
     44000   1.0009629      12.305438      1.5014298      23.412142      20.496976      0              2.1366022      0              0              49.500597      49.500597      49.500597    
     45000   1.0016239      12.401676      1.5024213      23.421125      20.494613      0              2.1484594      0              0              49.500597      49.500597      49.500597    
     46000   1.0049726      12.629359      1.5074442      23.427211      20.49685       0              2.1549175      0              0              49.500597      49.500597      49.500597    
     47000   1.001052       12.832708      1.5015635      23.444979      20.498339      0              2.1710921      0              0              49.500597      49.500597      49.500597    
     48000   1.0015808      13.101094      1.5023566      23.455208      20.506415      0              2.173084       0              0              49.500597      49.500597      49.500597    
     49000   1.0015657      13.280205      1.502334       23.464792      20.505395      0              2.1839511      0              0              49.500597      49.500597      49.500597    
     50000   1.0035581      13.409292      1.5053225      23.47243       20.500723      0              2.1971709      0              0              49.500597      49.500597      49.500597    
     51000   1.0028558      13.65545       1.5042692      23.485467      20.504678      0              2.2056098      0              0              49.500597      49.500597      49.500597    
     52000   1.0012886      13.871562      1.5019184      23.501024      20.508193      0              2.2180233      0              0              49.500597      49.500597      49.500597    
     53000   0.99865451     14.014766      1.4979672      23.518133      20.507376      0              2.2367712      0              0              49.500597      49.500597      49.500597    
     54000   1.0030331      14.247628      1.5045351      23.523943      20.509315      0              2.241584       0              0              49.500597      49.500597      49.500597    
     55000   1.0034774      14.415763      1.5052014      23.530859      20.509943      0              2.2506823      0              0              49.500597      49.500597      49.500597    
     56000   1.0018131      14.578852      1.5027051      23.540234      20.513951      0              2.2565587      0              0              49.500597      49.500597      49.500597    
     57000   1.0005676      14.768932      1.5008368      23.548716      20.510056      0              2.2683216      0              0              49.500597      49.500597      49.500597    
     58000   1.0027315      14.928759      1.5040827      23.552763      20.515304      0              2.2690144      0              0              49.500597      49.500597      49.500597    
     59000   1.0000517      15.173204      1.500063       23.564883      20.515657      0              2.2812227      0              0              49.500597      49.500597      49.500597    
     60000   1.0015783      15.342432      1.5023529      23.572689      20.519413      0              2.2855806      0              0              49.500597      49.500597      49.500597    
     61000   1.0009127      15.485318      1.5013545      23.582015      20.516489      0              2.297927       0              0              49.500597      49.500597      49.500597    
     62000   1.0034602      15.723827      1.5051757      23.586915      20.518414      0              2.3015915      0              0              49.500597      49.500597      49.500597    
     63000   0.99981415     15.864617      1.4997067      23.60371       20.522982      0              2.3145968      0              0              49.500597      49.500597      49.500597    
     64000   1.0043287      16.014579      1.5064785      23.607393      20.52105       0              2.3204999      0              0              49.500597      49.500597      49.500597    
     65000   1.002725       16.227836      1.5040729      23.618416      20.524743      0              2.3280714      0              0              49.500597      49.500597      49.500597    
     66000   1.0037105      16.438445      1.5055511      23.625663      20.526745      0              2.3350442      0              0              49.500597      49.500597      49.500597    
     67000   0.99850392     16.604181      1.4977414      23.641008      20.531109      0              2.3449629      0              0              49.500597      49.500597      49.500597    
     68000   0.99953992     16.73618       1.4992953      23.648232      20.526584      0              2.3554452      0              0              49.500597      49.500597      49.500597    
     69000   1.0002899      16.933568      1.5004204      23.659207      20.532159      0              2.3614366      0              0              49.500597      49.500597      49.500597    
     70000   1.0028131      17.035315      1.5042051      23.665066      20.531155      0              2.3677886      0              0              49.500597      49.500597      49.500597    
     71000   1.0022726      17.23186       1.5033943      23.671056      20.536418      0              2.3693072      0              0              49.500597      49.500597      49.500597    
     72000   1.0009062      17.379208      1.5013447      23.678418      20.534099      0              2.3789189      0              0              49.500597      49.500597      49.500597    
     73000   1.0059719      17.556052      1.5089432      23.678082      20.533558      0              2.3788373      0              0              49.500597      49.500597      49.500597    
     74000   0.99944007     17.715611      1.4991456      23.694732      20.536821      0              2.3933441      0              0              49.500597      49.500597      49.500597    
     75000   0.99827971     17.880034      1.497405       23.704785      20.539661      0              2.4013676      0              0              49.500597      49.500597      49.500597    
     76000   1.0034587      17.993058      1.5051734      23.704957      20.535534      0              2.4046958      0              0              49.500597      49.500597      49.500597    
     77000   0.99896352     18.210034      1.4984307      23.718849      20.544944      0              2.4096134      0              0              49.500597      49.500597      49.500597    
     78000   0.99926151     18.342404      1.4988777      23.724651      20.543684      0              2.4170623      0              0              49.500597      49.500597      49.500597    
     79000   0.99985274     18.576736      1.4997646      23.732742      20.550741      0              2.4186972      0              0              49.500597      49.500597      49.500597    
     80000   1.0016371      18.686666      1.5024411      23.740098      20.544758      0              2.4305279      0              0              49.500597      49.500597      49.500597    
     81000   0.99759054     18.883161      1.4963713      23.756899      20.554892      0              2.4390905      0              0              49.500597      49.500597      49.500597    
     82000   1.0006321      19.06856       1.5009336      23.761471      20.555461      0              2.4432019      0              0              49.500597      49.500597      49.500597    
     83000   1.0014978      19.152967      1.5022322      23.766065      20.553735      0              2.4489441      0              0              49.500597      49.500597      49.500597    
     84000   1.000891       19.352992      1.501322       23.772296      20.556934      0              2.4535927      0              0              49.500597      49.500597      49.500597    
     85000   0.99890768     19.529463      1.498347       23.782327      20.560659      0              2.459062       0              0              49.500597      49.500597      49.500597    
     86000   1.0017276      19.64971       1.5025768      23.786191      20.562138      0              2.4618064      0              0              49.500597      49.500597      49.500597    
     87000   0.99497657     19.804411      1.4924504      23.804042      20.561529      0              2.4784782      0              0              49.500597      49.500597      49.500597    
     88000   0.9980363      19.972462      1.4970399      23.806832      20.5593        0              2.4852215      0              0              49.500597      49.500597      49.500597    
     89000   0.99778948     20.116709      1.4966697      23.816039      20.563965      0              2.4879982      0              0              49.500597      49.500597      49.500597    
     90000   0.99904786     20.318652      1.4985573      23.82495       20.565034      0              2.4966787      0              0              49.500597      49.500597      49.500597    
     91000   1.0004113      20.454987      1.5006024      23.833262      20.564781      0              2.5057708      0              0              49.500597      49.500597      49.500597    
     92000   1.0010678      20.617805      1.5015872      23.840683      20.567168      0              2.5114419      0              0              49.500597      49.500597      49.500597    
     93000   0.99721443     20.751114      1.4958071      23.853499      20.573826      0              2.5158668      0              0              49.500597      49.500597      49.500597    
     94000   0.99895977     20.859029      1.4984251      23.858049      20.56896       0              2.5270552      0              0              49.500597      49.500597      49.500597    
     95000   1.0015615      21.082758      1.5023277      23.861945      20.575935      0              2.5241066      0              0              49.500597      49.500597      49.500597    
     96000   0.9999785      21.217089      1.4999532      23.87327       20.573228      0              2.537741       0              0              49.500597      49.500597      49.500597    
     97000   1.0001326      21.391213      1.5001844      23.881212      20.580973      0              2.5375227      0              0              49.500597      49.500597      49.500597    
     98000   1.0015086      21.503606      1.5022484      23.887394      20.57971       0              2.545136       0              0              49.500597      49.500597      49.500597    
     99000   1.0009723      21.654748      1.5014439      23.896877      20.579378      0              2.5541366      0              0              49.500597      49.500597      49.500597    
    100000   1.0021187      21.78103       1.5031635      23.903227      20.581793      0              2.5595294      0              0              49.500597      49.500597      49.500597    
Loop time of 1769.72 on 1 procs for 100000 steps with 103098 atoms

Performance: 4882.137 tau/day, 56.506 timesteps/s, 5.826 Matom-step/s
99.2% CPU use with 1 MPI tasks x no OpenMP threads

MPI task timing breakdown:
Section |  min time  |  avg time  |  max time  |%varavg| %total
---------------------------------------------------------------
Pair    | 1069.8     | 1069.8     | 1069.8     |   0.0 | 60.45
Bond    | 352.5      | 352.5      | 352.5      |   0.0 | 19.92
Neigh   | 152.05     | 152.05     | 152.05     |   0.0 |  8.59
Comm    | 25.221     | 25.221     | 25.221     |   0.0 |  1.43
Output  | 0.30008    | 0.30008    | 0.30008    |   0.0 |  0.02
Modify  | 132.06     | 132.06     | 132.06     |   0.0 |  7.46
Other   |            | 37.75      |            |       |  2.13

Nlocal:         103098 ave      103098 max      103098 min
Histogram: 1 0 0 0 0 0 0 0 0 0
Nghost:          20788 ave       20788 max       20788 min
Histogram: 1 0 0 0 0 0 0 0 0 0
Neighs:         592554 ave      592554 max      592554 min
Histogram: 1 0 0 0 0 0 0 0 0 0

Total # of neighbors = 592554
Ave neighs/atom = 5.747483
Ave special neighs/atom = 1.980601
Neighbor list builds = 3347
Dangerous builds = 0

unfix		softpushoff

undump		dump1


#################Equilibration##################

pair_style 	lj/cut 2.5

pair_modify	shift yes

pair_coeff      * * 1.0 1.0

unfix		fix1

fix		fix2 all npt temp 1.0 1.0 1.0 iso 0 0 100

reset_timestep	0

dump            dump2 all custom 50000 equilibration.dump id mol type q xs ys zs ix iy iz

dump_modify     dump2 sort id #sort per-atom lines by atom ID

run             500000
Generated 0 of 0 mixed pair_coeff terms from geometric mixing rule
Neighbor list info ...
  update: every = 1 steps, delay = 0 steps, check = yes
  max neighbors/atom: 2000, page size: 100000
  master list distance cutoff = 2.8
  ghost atom cutoff = 2.8
  binsize = 1.4, bins = 36 36 36
  1 neighbor lists, perpetual/occasional/extra = 1 0 0
  (1) pair lj/cut, perpetual
      attributes: half, newton on
      pair build: half/bin/newton
      stencil: half/bin/3d
      bin: standard
Per MPI rank memory allocation (min/avg/max) = 77.4 | 77.4 | 77.4 Mbytes
   Step          Temp          Press          KinEng         PotEng         E_bond        E_impro         E_vdwl         E_coul         E_long           Lx             Ly             Lz      
         0   1.0021187      0.47786823     1.5031635      16.665916      20.581793      0             -4.6777816      0              0              49.500597      49.500597      49.500597    
      1000   0.87426831    -1.253068       1.3113897      16.904416      20.483849      0             -4.3308541      0              0              49.494214      49.494214      49.494214    
      2000   0.90279986    -0.91393666     1.3541867      16.928238      20.47011       0             -4.3001848      0              0              49.480223      49.480223      49.480223    
      3000   0.93263091    -0.73986297     1.3989328      16.952092      20.469208      0             -4.2850747      0              0              49.461174      49.461174      49.461174    
      4000   0.95684824    -0.59323838     1.4352584      16.981004      20.479156      0             -4.2743778      0              0              49.439194      49.439194      49.439194    
      5000   0.98161035    -0.59261788     1.4724012      17.001414      20.487621      0             -4.2707766      0              0              49.416528      49.416528      49.416528    
      6000   0.9944546     -0.45875391     1.4916674      17.027489      20.502722      0             -4.2643342      0              0              49.395072      49.395072      49.395072    
      7000   1.0074055     -0.36758681     1.5110936      17.034862      20.508247      0             -4.2675109      0              0              49.375862      49.375862      49.375862    
      8000   1.0099982     -0.34507105     1.5149826      17.031495      20.507388      0             -4.271778       0              0              49.358988      49.358988      49.358988    
      9000   1.000982      -0.3987631      1.5014585      17.022567      20.507118      0             -4.2826283      0              0              49.343857      49.343857      49.343857    
     10000   0.99344631    -0.40357742     1.490155       17.013744      20.500575      0             -4.2862457      0              0              49.329674      49.329674      49.329674    
     11000   0.99999731    -0.46736854     1.4999814      16.999366      20.495828      0             -4.2943143      0              0              49.3159        49.3159        49.3159      
     12000   1.0004655     -0.30556911     1.5006836      17.005181      20.502306      0             -4.2941939      0              0              49.302162      49.302162      49.302162    
     13000   1.0036992     -0.33084725     1.5055342      17.006376      20.502686      0             -4.2948285      0              0              49.288502      49.288502      49.288502    
     14000   1.0040516     -0.33745748     1.5060628      17.001673      20.500289      0             -4.2984615      0              0              49.274959      49.274959      49.274959    
     15000   1.0025404     -0.35614062     1.503796       16.991836      20.496291      0             -4.3046259      0              0              49.26159       49.26159       49.26159     
     16000   0.99898623    -0.3457532      1.4984648      16.987197      20.49949       0             -4.3124917      0              0              49.248385      49.248385      49.248385    
     17000   0.99666657    -0.30879894     1.4949854      16.989463      20.495541      0             -4.3075772      0              0              49.235351      49.235351      49.235351    
     18000   0.99935873    -0.33502612     1.4990236      16.990818      20.499915      0             -4.3125344      0              0              49.222582      49.222582      49.222582    
     19000   1.0036676     -0.2933984      1.5054867      16.98735       20.503792      0             -4.3175496      0              0              49.210201      49.210201      49.210201    
     20000   1.0005552     -0.24832913     1.5008183      16.986186      20.501526      0             -4.3175812      0              0              49.19827       49.19827       49.19827     
     21000   1.0003675     -0.31213959     1.5005367      16.973771      20.497399      0             -4.3246839      0              0              49.186854      49.186854      49.186854    
     22000   0.9974142     -0.33019309     1.4961068      16.966658      20.498007      0             -4.3340841      0              0              49.17583       49.17583       49.17583     
     23000   0.99787274    -0.3149663      1.4967946      16.964531      20.497169      0             -4.3335647      0              0              49.165112      49.165112      49.165112    
     24000   1.0003752     -0.24169764     1.5005483      16.968024      20.503194      0             -4.3384206      0              0              49.154737      49.154737      49.154737    
     25000   1.0047236     -0.27507701     1.5070708      16.96768       20.500372      0             -4.3357246      0              0              49.144719      49.144719      49.144719    
     26000   1.0012089     -0.20200091     1.5017988      16.966928      20.501683      0             -4.3351149      0              0              49.135143      49.135143      49.135143    
     27000   1.000507      -0.21157262     1.5007459      16.953041      20.49821       0             -4.345462       0              0              49.125976      49.125976      49.125976    
     28000   0.99520257    -0.23797518     1.4927894      16.949712      20.497546      0             -4.3481131      0              0              49.11701       49.11701       49.11701     
     29000   0.99793899    -0.21310348     1.496894       16.947941      20.498125      0             -4.3503288      0              0              49.108204      49.108204      49.108204    
     30000   1.0028429     -0.21870252     1.5042498      16.947677      20.502215      0             -4.3544482      0              0              49.099566      49.099566      49.099566    
     31000   1.0030933     -0.21439958     1.5046254      16.948153      20.502359      0             -4.3539656      0              0              49.091092      49.091092      49.091092    
     32000   0.99950056    -0.14122048     1.4992363      16.946383      20.500477      0             -4.3554512      0              0              49.082834      49.082834      49.082834    
     33000   0.99886355    -0.19794282     1.4982808      16.939653      20.498749      0             -4.361361       0              0              49.074814      49.074814      49.074814    
     34000   0.99999599    -0.16450123     1.4999794      16.933284      20.500944      0             -4.3673295      0              0              49.066977      49.066977      49.066977    
     35000   0.99857694    -0.15922225     1.4978509      16.934702      20.500202      0             -4.3653035      0              0              49.059274      49.059274      49.059274    
     36000   1.0002501     -0.22136904     1.5003605      16.933633      20.497657      0             -4.3639338      0              0              49.051682      49.051682      49.051682    
     37000   0.99997842    -0.19273341     1.4999531      16.933559      20.501337      0             -4.3676935      0              0              49.044249      49.044249      49.044249    
     38000   0.99988326    -0.21271127     1.4998103      16.930435      20.501829      0             -4.3719561      0              0              49.036994      49.036994      49.036994    
     39000   1.0017478     -0.2145131      1.5026072      16.92211       20.49863       0             -4.3764834      0              0              49.029904      49.029904      49.029904    
     40000   1.0003416     -0.19475515     1.5004979      16.919289      20.499403      0             -4.3800328      0              0              49.022937      49.022937      49.022937    
     41000   0.99923609    -0.19863876     1.4988396      16.918908      20.500834      0             -4.3819398      0              0              49.016032      49.016032      49.016032    
     42000   0.99915183    -0.12824293     1.4987132      16.920691      20.499696      0             -4.379882       0              0              49.009219      49.009219      49.009219    
     43000   0.99981893    -0.15121283     1.4997139      16.921149      20.50312       0             -4.3832933      0              0              49.002602      49.002602      49.002602    
     44000   1.0017058     -0.094474841    1.5025441      16.915984      20.501439      0             -4.3873215      0              0              48.996146      48.996146      48.996146    
     45000   0.99976088    -0.12779902     1.4996268      16.913832      20.501254      0             -4.388211       0              0              48.989822      48.989822      48.989822    
     46000   0.99844575    -0.18170442     1.4976541      16.911979      20.498265      0             -4.3898276      0              0              48.98361       48.98361       48.98361     
     47000   0.99933026    -0.15179106     1.4989808      16.91101       20.501375      0             -4.3919414      0              0              48.97757       48.97757       48.97757     
     48000   1.001066      -0.16396767     1.5015844      16.909282      20.500015      0             -4.390287       0              0              48.97166       48.97166       48.97166     
     49000   1.0001503     -0.14022534     1.5002108      16.909853      20.50315       0             -4.3953301      0              0              48.965876      48.965876      48.965876    
     50000   1.0009853     -0.059230568    1.5014634      16.905235      20.499446      0             -4.3950839      0              0              48.96021       48.96021       48.96021     
     51000   0.99897062    -0.15763921     1.4984414      16.905479      20.500556      0             -4.3975285      0              0              48.954725      48.954725      48.954725    
     52000   1.0019467     -0.10574807     1.5029055      16.900145      20.49989       0             -4.3992122      0              0              48.949408      48.949408      48.949408    
     53000   1.0016776     -0.055568858    1.5025018      16.898314      20.498589      0             -4.4003088      0              0              48.944244      48.944244      48.944244    
     54000   0.99964157    -0.098620014    1.4994478      16.898171      20.499252      0             -4.4034207      0              0              48.939229      48.939229      48.939229    
     55000   0.99813415    -0.10800213     1.4971867      16.898385      20.499263      0             -4.4005961      0              0              48.934349      48.934349      48.934349    
     56000   1.0000138     -0.016101216    1.5000061      16.895572      20.499349      0             -4.4043356      0              0              48.929561      48.929561      48.929561    
     57000   1.0000971     -0.035804259    1.5001311      16.896124      20.497227      0             -4.4040683      0              0              48.924906      48.924906      48.924906    
     58000   1.0022267     -0.081805831    1.5033254      16.891465      20.497598      0             -4.4085025      0              0              48.920408      48.920408      48.920408    
     59000   1.0005263     -0.049095104    1.5007748      16.889979      20.497742      0             -4.4099932      0              0              48.916071      48.916071      48.916071    
     60000   0.99833473    -0.098254203    1.4974876      16.891792      20.498112      0             -4.4094181      0              0              48.91194       48.91194       48.91194     
     61000   1.0013714     -0.079115482    1.5020425      16.889672      20.495829      0             -4.4086226      0              0              48.907991      48.907991      48.907991    
     62000   1.0001417     -0.035554971    1.500198       16.893048      20.500381      0             -4.4079711      0              0              48.904126      48.904126      48.904126    
     63000   1.0038887     -0.074261332    1.5058185      16.88325       20.498318      0             -4.4164067      0              0              48.900387      48.900387      48.900387    
     64000   1.0006054     -0.1113468      1.5008936      16.881576      20.496006      0             -4.4168279      0              0              48.896766      48.896766      48.896766    
     65000   0.99734164    -0.066887538    1.4959979      16.88418       20.502346      0             -4.4195625      0              0              48.893217      48.893217      48.893217    
     66000   0.99816094    -0.061875567    1.4972269      16.88391       20.498085      0             -4.4133373      0              0              48.889747      48.889747      48.889747    
     67000   1.000044      -0.049856913    1.5000515      16.882582      20.499803      0             -4.4174111      0              0              48.886409      48.886409      48.886409    
     68000   1.0004613     -0.061261112    1.5006774      16.881662      20.499304      0             -4.4170742      0              0              48.883181      48.883181      48.883181    
     69000   0.99896358    -0.020601315    1.4984308      16.879816      20.496694      0             -4.4170466      0              0              48.880047      48.880047      48.880047    
     70000   0.99839239    -0.010218029    1.4975741      16.877331      20.498921      0             -4.4200661      0              0              48.877001      48.877001      48.877001    
     71000   0.99659759    -0.058480443    1.4948819      16.879967      20.502358      0             -4.421614       0              0              48.874011      48.874011      48.874011    
     72000   1.0024655     -0.031165528    1.5036837      16.873808      20.496721      0             -4.421138       0              0              48.871064      48.871064      48.871064    
     73000   0.99879187    -0.017447314    1.4981733      16.880714      20.498465      0             -4.4187911      0              0              48.868226      48.868226      48.868226    
     74000   1.0047408     -0.021456193    1.5070965      16.871511      20.493457      0             -4.4235282      0              0              48.865496      48.865496      48.865496    
     75000   1.0016185     -0.021416159    1.5024132      16.872844      20.498787      0             -4.4253236      0              0              48.862926      48.862926      48.862926    
     76000   0.99743727    -0.016941746    1.4961414      16.87412       20.499943      0             -4.4260506      0              0              48.860455      48.860455      48.860455    
     77000   0.99697448    -0.037811399    1.4954472      16.872702      20.499439      0             -4.4260213      0              0              48.858084      48.858084      48.858084    
     78000   1.0008652     -0.047147838    1.5012833      16.869978      20.496701      0             -4.4281358      0              0              48.85583       48.85583       48.85583     
     79000   1.0003121     -0.014175162    1.5004536      16.875568      20.496815      0             -4.4203857      0              0              48.85367       48.85367       48.85367     
     80000   1.0008669     -0.016486276    1.5012858      16.876107      20.500248      0             -4.4253252      0              0              48.85162       48.85162       48.85162     
     81000   0.99886782    -0.016293488    1.4982872      16.8714        20.499376      0             -4.427912       0              0              48.849635      48.849635      48.849635    
     82000   0.99867119    -0.013727902    1.4979923      16.865409      20.497169      0             -4.4311918      0              0              48.847689      48.847689      48.847689    
     83000   1.0004398     -0.079647988    1.5006451      16.865068      20.497899      0             -4.4328293      0              0              48.845748      48.845748      48.845748    
     84000   0.99979533    -0.023671099    1.4996784      16.871035      20.496743      0             -4.4276155      0              0              48.843792      48.843792      48.843792    
     85000   1.0011556      0.004964351    1.5017188      16.873777      20.499164      0             -4.4247744      0              0              48.841994      48.841994      48.841994    
     86000   1.0018632      0.048715562    1.5027802      16.868496      20.497997      0             -4.4279471      0              0              48.840339      48.840339      48.840339    
     87000   0.99655692    -0.04126045     1.4948209      16.86602       20.497779      0             -4.4324597      0              0              48.83882       48.83882       48.83882     
     88000   0.9977377     -0.010689331    1.496592       16.865765      20.497343      0             -4.4312413      0              0              48.837356      48.837356      48.837356    
     89000   1.0001419      0.026377116    1.5001983      16.868852      20.500105      0             -4.4301879      0              0              48.835954      48.835954      48.835954    
     90000   0.99972625    -0.040718328    1.4995748      16.872118      20.501021      0             -4.4316138      0              0              48.834685      48.834685      48.834685    
     91000   1.0004909     -0.026818098    1.5007218      16.867798      20.501778      0             -4.4334854      0              0              48.833503      48.833503      48.833503    
     92000   0.99480265     0.036669059    1.4921895      16.866553      20.500468      0             -4.435429       0              0              48.832366      48.832366      48.832366    
     93000   0.99712496     0.040453354    1.4956729      16.864036      20.493813      0             -4.4298066      0              0              48.83127       48.83127       48.83127     
     94000   1.0035349     -0.011421341    1.5052878      16.859083      20.494487      0             -4.4362507      0              0              48.830294      48.830294      48.830294    
     95000   1.0007845      0.024068451    1.5011621      16.865757      20.498319      0             -4.4325952      0              0              48.829405      48.829405      48.829405    
     96000   1.0015657      0.037356033    1.502334       16.864621      20.500241      0             -4.4359858      0              0              48.828647      48.828647      48.828647    
     97000   0.9994343     -0.013881655    1.4991369      16.866294      20.501882      0             -4.4358934      0              0              48.827933      48.827933      48.827933    
     98000   1.0027937      0.027724124    1.5041759      16.860439      20.497512      0             -4.4369495      0              0              48.827252      48.827252      48.827252    
     99000   1.0008556     -0.062672316    1.5012688      16.860374      20.498563      0             -4.4373301      0              0              48.826588      48.826588      48.826588    
    100000   0.9967136     -0.019925155    1.4950559      16.864298      20.498627      0             -4.4345768      0              0              48.825969      48.825969      48.825969    
    101000   0.99837602     0.02310129     1.4975495      16.862836      20.499962      0             -4.4368919      0              0              48.825397      48.825397      48.825397    
    102000   1.0013842     -0.0043124162   1.5020617      16.865083      20.502441      0             -4.4359798      0              0              48.824881      48.824881      48.824881    
    103000   1.0046533      0.030172125    1.5069653      16.862499      20.50037       0             -4.4350177      0              0              48.824439      48.824439      48.824439    
    104000   0.99587913    -0.034009507    1.4938042      16.867445      20.50344       0             -4.4333356      0              0              48.824084      48.824084      48.824084    
    105000   0.99859007    -0.0054834187   1.4978706      16.85824       20.500196      0             -4.4394175      0              0              48.823793      48.823793      48.823793    
    106000   0.99916308    -0.017044042    1.4987301      16.858611      20.500938      0             -4.4396431      0              0              48.823482      48.823482      48.823482    
    107000   0.99913389     0.0072973315   1.4986863      16.862545      20.503618      0             -4.4376778      0              0              48.823147      48.823147      48.823147    
    108000   1.0004329      0.068801347    1.5006348      16.864691      20.499334      0             -4.4331135      0              0              48.822835      48.822835      48.822835    
    109000   1.0020075      0.04234875     1.5029966      16.868478      20.503185      0             -4.4349027      0              0              48.822654      48.822654      48.822654    
    110000   1.0037903      0.056868482    1.5056709      16.862437      20.50262       0             -4.4364691      0              0              48.822583      48.822583      48.822583    
    111000   0.99976703     0.001305801    1.499636       16.85871       20.496939      0             -4.4336718      0              0              48.822629      48.822629      48.822629    
    112000   0.99568321     0.014508339    1.4935103      16.863499      20.500828      0             -4.4346185      0              0              48.822711      48.822711      48.822711    
    113000   1.0010149     -0.0050435221   1.5015078      16.858572      20.499993      0             -4.4371885      0              0              48.822753      48.822753      48.822753    
    114000   1.0022814      0.028865481    1.5034075      16.860114      20.499678      0             -4.4351195      0              0              48.822763      48.822763      48.822763    
    115000   1.0039054      0.054497088    1.5058435      16.8595        20.501082      0             -4.4396216      0              0              48.822801      48.822801      48.822801    
    116000   1.0016813      0.014557281    1.5025073      16.859253      20.498697      0             -4.4398681      0              0              48.822898      48.822898      48.822898    
    117000   0.9969528     -0.0089359043   1.4954147      16.85996       20.498916      0             -4.4374859      0              0              48.823019      48.823019      48.823019    
    118000   1.0003366     -0.0034359014   1.5004903      16.8546        20.495215      0             -4.4394062      0              0              48.823099      48.823099      48.823099    
    119000   1.0021219     -0.016949371    1.5031683      16.861106      20.495934      0             -4.4344088      0              0              48.823181      48.823181      48.823181    
    120000   1.000197       0.030798946    1.500281       16.867526      20.502225      0             -4.4338264      0              0              48.823413      48.823413      48.823413    
    121000   1.0005799     -0.056360703    1.5008552      16.863666      20.49999       0             -4.4353941      0              0              48.823737      48.823737      48.823737    
    122000   0.99952904     0.017365341    1.499279       16.861211      20.497989      0             -4.4364546      0              0              48.824024      48.824024      48.824024    
    123000   0.99944739    -0.016349418    1.4991565      16.861072      20.501167      0             -4.4384078      0              0              48.824275      48.824275      48.824275    
    124000   0.99876005    -0.0090947097   1.4981255      16.863177      20.500806      0             -4.4360186      0              0              48.82444       48.82444       48.82444     
    125000   1.0014         0.053391307    1.5020854      16.860112      20.500431      0             -4.4371262      0              0              48.824568      48.824568      48.824568    
    126000   0.99963254     0.047045985    1.4994343      16.858769      20.498085      0             -4.4352926      0              0              48.824681      48.824681      48.824681    
    127000   0.99825831    -0.032748884    1.4973729      16.85623       20.497394      0             -4.4388929      0              0              48.824734      48.824734      48.824734    
    128000   0.99644712    -0.062584355    1.4946562      16.859597      20.498988      0             -4.4385875      0              0              48.824664      48.824664      48.824664    
    129000   1.0009825     -0.027270272    1.5014592      16.862398      20.499011      0             -4.4360657      0              0              48.824509      48.824509      48.824509    
    130000   1.0000517      0.0047226772   1.500063       16.865551      20.501225      0             -4.4313609      0              0              48.824385      48.824385      48.824385    
    131000   1.0022528      0.0054187344   1.5033647      16.857109      20.500027      0             -4.4378204      0              0              48.824326      48.824326      48.824326    
    132000   0.99995125    -0.020707726    1.4999123      16.855645      20.495309      0             -4.4357968      0              0              48.824233      48.824233      48.824233    
    133000   0.99888594    -0.014451096    1.4983144      16.856907      20.497765      0             -4.4376604      0              0              48.824145      48.824145      48.824145    
    134000   0.99922723     0.016548464    1.4988263      16.859967      20.497581      0             -4.4349547      0              0              48.824065      48.824065      48.824065    
    135000   1.0033303     -0.023910319    1.5049808      16.857251      20.49684       0             -4.4388748      0              0              48.823982      48.823982      48.823982    
    136000   0.99941529     0.061014967    1.4991084      16.863534      20.498526      0             -4.433977       0              0              48.823925      48.823925      48.823925    
    137000   1.0020333     -0.023593212    1.5030354      16.858659      20.497002      0             -4.4367853      0              0              48.823918      48.823918      48.823918    
    138000   1.0039431      0.020328605    1.5059001      16.853575      20.493671      0             -4.4370617      0              0              48.824033      48.824033      48.824033    
    139000   0.9972539     -0.0098201621   1.4958663      16.859346      20.498109      0             -4.4355157      0              0              48.82418       48.82418       48.82418     
    140000   0.99731632    -0.040040948    1.49596        16.856703      20.498271      0             -4.4400482      0              0              48.824333      48.824333      48.824333    
    141000   0.99938728     0.038738239    1.4990664      16.859666      20.49937       0             -4.4361487      0              0              48.82443       48.82443       48.82443     
    142000   1.0000251      0.027450886    1.5000231      16.864707      20.502625      0             -4.4358467      0              0              48.824522      48.824522      48.824522    
    143000   1.0004989     -0.018106683    1.5007338      16.862059      20.500714      0             -4.4346735      0              0              48.824634      48.824634      48.824634    
    144000   0.99688582     0.0011015027   1.4953142      16.860987      20.502324      0             -4.4384087      0              0              48.824745      48.824745      48.824745    
    145000   0.99855606    -0.047695471    1.4978196      16.852833      20.495318      0             -4.4395381      0              0              48.824748      48.824748      48.824748    
    146000   0.99836284    -0.029899163    1.4975297      16.850896      20.496455      0             -4.4426632      0              0              48.824609      48.824609      48.824609    
    147000   0.99860132     0.01558376     1.4978875      16.859814      20.498648      0             -4.4376639      0              0              48.824293      48.824293      48.824293    
    148000   1.0005966     -0.052488303    1.5008803      16.863649      20.503884      0             -4.4386496      0              0              48.823926      48.823926      48.823926    
    149000   1.0019592      0.00999844     1.5029242      16.862229      20.501482      0             -4.4364465      0              0              48.823546      48.823546      48.823546    
    150000   1.0016052      0.046509957    1.5023932      16.855113      20.496834      0             -4.4374968      0              0              48.823193      48.823193      48.823193    
    151000   0.9939715      0.019638373    1.4909428      16.86136       20.498151      0             -4.4334597      0              0              48.822878      48.822878      48.822878    
    152000   0.99659487     0.0064618462   1.4948778      16.860077      20.501732      0             -4.4401737      0              0              48.822581      48.822581      48.822581    
    153000   0.99780973    -0.039107908    1.4967001      16.86267       20.499241      0             -4.4344259      0              0              48.822275      48.822275      48.822275    
    154000   1.0012463      0.026820032    1.5018549      16.859216      20.496889      0             -4.4348187      0              0              48.821978      48.821978      48.821978    
    155000   1.0000411      0.021974598    1.5000472      16.860645      20.500204      0             -4.4362835      0              0              48.821757      48.821757      48.821757    
    156000   0.99732327     0.026984853    1.4959704      16.864077      20.501487      0             -4.4348149      0              0              48.821595      48.821595      48.821595    
    157000   1.0027596     -0.015390694    1.5041249      16.854703      20.499469      0             -4.441576       0              0              48.821483      48.821483      48.821483    
    158000   0.99958827    -0.033050727    1.4993679      16.858249      20.498346      0             -4.4365632      0              0              48.821395      48.821395      48.821395    
    159000   0.99991726     0.018576588    1.4998613      16.856431      20.499221      0             -4.4399805      0              0              48.821319      48.821319      48.821319    
    160000   0.99441213     0.053759409    1.4916037      16.861562      20.500346      0             -4.435657       0              0              48.821299      48.821299      48.821299    
    161000   0.99906478     0.054844437    1.4985826      16.855964      20.494034      0             -4.4357529      0              0              48.821364      48.821364      48.821364    
    162000   0.99929919     0.044215198    1.4989342      16.863425      20.501689      0             -4.4350242      0              0              48.82147       48.82147       48.82147     
    163000   1.0000798      0.00013003599  1.5001052      16.86396       20.501558      0             -4.4356498      0              0              48.821623      48.821623      48.821623    
    164000   0.99990222    -0.0015595848   1.4998388      16.860065      20.500849      0             -4.4399095      0              0              48.821847      48.821847      48.821847    
    165000   0.99578432     0.013560064    1.493662       16.857614      20.500638      0             -4.4398892      0              0              48.822077      48.822077      48.822077    
    166000   0.99709098    -0.049745901    1.495622       16.853413      20.49821       0             -4.4419605      0              0              48.822245      48.822245      48.822245    
    167000   1.0006231      0.055717453    1.5009201      16.861544      20.499349      0             -4.4350802      0              0              48.822313      48.822313      48.822313    
    168000   1.0016267     -0.011205189    1.5024255      16.862248      20.498581      0             -4.4351914      0              0              48.82249       48.82249       48.82249     
    169000   1.0035017      0.008691637    1.5052379      16.8562        20.497006      0             -4.4379946      0              0              48.822758      48.822758      48.822758    
    170000   1.0011106      0.019524007    1.5016513      16.853331      20.496951      0             -4.4369556      0              0              48.823088      48.823088      48.823088    
    171000   0.99877346    -0.019157989    1.4981457      16.853748      20.49326       0             -4.4369317      0              0              48.823425      48.823425      48.823425    
    172000   1.0005733      0.041001382    1.5008454      16.857548      20.494322      0             -4.4349406      0              0              48.823765      48.823765      48.823765    
    173000   1.0038099     -0.0017188007   1.5057003      16.858873      20.50052       0             -4.4393662      0              0              48.824184      48.824184      48.824184    
    174000   0.99933234    -0.029016408    1.498984       16.864249      20.499376      0             -4.4343687      0              0              48.824682      48.824682      48.824682    
    175000   1.0022398     -0.037068556    1.5033452      16.856004      20.49487       0             -4.4379529      0              0              48.825185      48.825185      48.825185    
    176000   0.99970446    -0.078142081    1.4995421      16.855367      20.49691       0             -4.4383662      0              0              48.825654      48.825654      48.825654    
    177000   0.99804707    -0.023644383    1.4970561      16.856835      20.497349      0             -4.4369691      0              0              48.826055      48.826055      48.826055    
    178000   1.0040469      0.0016486894   1.5060557      16.857952      20.497559      0             -4.4344986      0              0              48.826339      48.826339      48.826339    
    179000   1.0043558     -0.026882777    1.5065191      16.859995      20.502124      0             -4.4373347      0              0              48.826642      48.826642      48.826642    
    180000   1.002369      -0.0099079166   1.503539       16.855511      20.496234      0             -4.4370869      0              0              48.826964      48.826964      48.826964    
    181000   0.99809731    -0.072240218    1.4971314      16.857594      20.500387      0             -4.440138       0              0              48.82723       48.82723       48.82723     
    182000   0.99696721     0.023314221    1.4954363      16.860604      20.500607      0             -4.4341439      0              0              48.827404      48.827404      48.827404    
    183000   0.99848307     0.031473286    1.4977101      16.863175      20.497413      0             -4.429568       0              0              48.827569      48.827569      48.827569    
    184000   1.0024176      0.036486571    1.5036118      16.865707      20.500634      0             -4.4271516      0              0              48.827766      48.827766      48.827766    
    185000   1.0058518      0.0055067086   1.5087631      16.864824      20.50418       0             -4.4333358      0              0              48.828089      48.828089      48.828089    
    186000   1.0001719      0.0058321329   1.5002434      16.861268      20.501386      0             -4.434703       0              0              48.828481      48.828481      48.828481    
    187000   0.99898033    -0.0055437222   1.498456       16.857444      20.500256      0             -4.4368084      0              0              48.82895       48.82895       48.82895     
    188000   0.99985712    -0.058434902    1.4997711      16.853834      20.497477      0             -4.4381004      0              0              48.829381      48.829381      48.829381    
    189000   0.99751071     0.0051023945   1.4962516      16.859847      20.497477      0             -4.4322462      0              0              48.829683      48.829683      48.829683    
    190000   0.99927984     0.026296779    1.4989052      16.864121      20.500068      0             -4.4334932      0              0              48.829882      48.829882      48.829882    
    191000   1.0017304     -0.032670633    1.5025811      16.864599      20.500538      0             -4.4341581      0              0              48.830084      48.830084      48.830084    
    192000   1.0015621      0.019005584    1.5023285      16.862285      20.498433      0             -4.4326791      0              0              48.830346      48.830346      48.830346    
    193000   0.9980599     -0.025473691    1.4970753      16.855425      20.497282      0             -4.4363448      0              0              48.830637      48.830637      48.830637    
    194000   0.99882806    -0.027199685    1.4982276      16.854266      20.494848      0             -4.4339193      0              0              48.830864      48.830864      48.830864    
    195000   1.0018775     -0.058509169    1.5028017      16.854686      20.497689      0             -4.4370111      0              0              48.830978      48.830978      48.830978    
    196000   1.0025472     -0.050465032    1.5038063      16.858841      20.49928       0             -4.4354451      0              0              48.830973      48.830973      48.830973    
    197000   1.0030315     -0.0079043216   1.5045326      16.860472      20.500138      0             -4.4344693      0              0              48.83093       48.83093       48.83093     
    198000   1.0020266     -0.033061469    1.5030253      16.858718      20.499         0             -4.4351201      0              0              48.830893      48.830893      48.830893    
    199000   0.99915097     0.0083218053   1.4987119      16.855215      20.499795      0             -4.4395188      0              0              48.830828      48.830828      48.830828    
    200000   0.99622713     0.014590948    1.4943262      16.857627      20.498875      0             -4.4356055      0              0              48.830683      48.830683      48.830683    
    201000   1.0004171      0.01556463     1.500611       16.858015      20.496075      0             -4.4337114      0              0              48.830464      48.830464      48.830464    
    202000   1.0014318     -0.01526223     1.5021331      16.861978      20.501119      0             -4.4351542      0              0              48.830198      48.830198      48.830198    
    203000   1.0000324     -0.018624983    1.5000341      16.863199      20.500319      0             -4.4330741      0              0              48.829949      48.829949      48.829949    
    204000   0.99830071    -0.04358149     1.4974365      16.863229      20.499891      0             -4.4330499      0              0              48.829671      48.829671      48.829671    
    205000   1.0002498      0.030438216    1.5003602      16.859379      20.496122      0             -4.4319602      0              0              48.829361      48.829361      48.829361    
    206000   0.99880005    -0.004565748    1.4981855      16.860309      20.499274      0             -4.4345045      0              0              48.829032      48.829032      48.829032    
    207000   0.99714206     0.0079140961   1.4956986      16.859034      20.501325      0             -4.4384579      0              0              48.828679      48.828679      48.828679    
    208000   0.9912703      0.022004694    1.486891       16.862158      20.498547      0             -4.432314       0              0              48.828256      48.828256      48.828256    
    209000   0.99883451    -0.0050904781   1.4982372      16.856848      20.499076      0             -4.4369821      0              0              48.827777      48.827777      48.827777    
    210000   1.0021344     -0.017034993    1.5031871      16.858498      20.500312      0             -4.4366895      0              0              48.827253      48.827253      48.827253    
    211000   1.0016294      0.029214793    1.5024296      16.860028      20.501909      0             -4.4366323      0              0              48.826731      48.826731      48.826731    
    212000   0.99894301     0.0094272719   1.4984         16.857557      20.497475      0             -4.4337483      0              0              48.826237      48.826237      48.826237    
    213000   0.9992866     -0.0058593839   1.4989154      16.851995      20.500722      0             -4.4403083      0              0              48.825764      48.825764      48.825764    
    214000   1.002405      -0.072050116    1.503593       16.848561      20.495014      0             -4.4391203      0              0              48.825274      48.825274      48.825274    
    215000   0.99951888    -0.020493097    1.4992638      16.854522      20.500669      0             -4.4395518      0              0              48.8247        48.8247        48.8247      
    216000   1.0012708     -0.017666616    1.5018917      16.854435      20.499745      0             -4.4388722      0              0              48.824094      48.824094      48.824094    
    217000   1.0038841     -0.041066011    1.5058115      16.851356      20.499289      0             -4.4403399      0              0              48.8235        48.8235        48.8235      
    218000   0.99994346    -0.024380361    1.4999006      16.852203      20.498224      0             -4.4402891      0              0              48.822946      48.822946      48.822946    
    219000   0.99859983    -0.008979386    1.4978852      16.848761      20.497651      0             -4.442622       0              0              48.822385      48.822385      48.822385    
    220000   1.0000313      0.015015648    1.5000324      16.851193      20.49666       0             -4.4384021      0              0              48.821873      48.821873      48.821873    
    221000   1.0002726      0.0077402954   1.5003943      16.858391      20.500338      0             -4.4376135      0              0              48.821421      48.821421      48.821421    
    222000   1.0002831      0.0055515835   1.5004102      16.858853      20.502413      0             -4.4364464      0              0              48.821044      48.821044      48.821044    
    223000   1.0017802     -0.032710017    1.5026557      16.852868      20.499877      0             -4.4416947      0              0              48.820756      48.820756      48.820756    
    224000   0.9969022      0.00088151156  1.4953388      16.855138      20.496755      0             -4.4369834      0              0              48.820522      48.820522      48.820522    
    225000   0.99572481    -0.0066601762   1.4935727      16.849522      20.497218      0             -4.443237       0              0              48.820289      48.820289      48.820289    
    226000   0.99690881     0.010979566    1.4953487      16.851672      20.496079      0             -4.4383684      0              0              48.82          48.82          48.82        
    227000   0.99871584     0.03901263     1.4980592      16.85789       20.500846      0             -4.4351177      0              0              48.819713      48.819713      48.819713    
    228000   1.00066        0.062491485    1.5009754      16.855642      20.499235      0             -4.4388534      0              0              48.819507      48.819507      48.819507    
    229000   1.0014418      0.011527785    1.5021482      16.8534        20.501507      0             -4.4414504      0              0              48.819367      48.819367      48.819367    
    230000   0.99752263    -0.036897883    1.4962694      16.85672       20.500039      0             -4.4390864      0              0              48.819225      48.819225      48.819225    
    231000   0.99583002     0.0029442624   1.4937305      16.856029      20.498091      0             -4.4357896      0              0              48.819049      48.819049      48.819049    
    232000   0.99758586    -0.0072204561   1.4963643      16.855464      20.499999      0             -4.4389721      0              0              48.818827      48.818827      48.818827    
    233000   1.0004312     -0.0056685487   1.5006323      16.860039      20.502994      0             -4.4377298      0              0              48.818536      48.818536      48.818536    
    234000   1.0017361     -0.0024589681   1.5025896      16.859867      20.502376      0             -4.437633       0              0              48.818273      48.818273      48.818273    
    235000   1.0008426      0.018607322    1.5012493      16.856518      20.500068      0             -4.4389039      0              0              48.818061      48.818061      48.818061    
    236000   1.0001393     -0.029297898    1.5001944      16.85258       20.496169      0             -4.4412068      0              0              48.817904      48.817904      48.817904    
    237000   0.99654682     0.0064080485   1.4948057      16.857226      20.496696      0             -4.4369088      0              0              48.817714      48.817714      48.817714    
    238000   1.0030958      0.026501147    1.5046292      16.859859      20.500794      0             -4.4366336      0              0              48.817567      48.817567      48.817567    
    239000   1.0047107     -0.014343335    1.5070515      16.860657      20.500639      0             -4.4376303      0              0              48.817528      48.817528      48.817528    
    240000   1.0028414     -0.017239706    1.5042475      16.856516      20.498152      0             -4.4392892      0              0              48.81764       48.81764       48.81764     
    241000   0.99958995    -0.0095920667   1.4993704      16.855261      20.498828      0             -4.4394767      0              0              48.817839      48.817839      48.817839    
    242000   0.99695042     0.019496727    1.4954111      16.85746       20.49925       0             -4.4380607      0              0              48.818086      48.818086      48.818086    
    243000   1.0019169      0.051497262    1.5028607      16.853308      20.49758       0             -4.437197       0              0              48.818353      48.818353      48.818353    
    244000   1.0044346      0.039702358    1.5066373      16.857343      20.499266      0             -4.4353596      0              0              48.818649      48.818649      48.818649    
    245000   1.0061686      0.035541036    1.5092383      16.856172      20.499791      0             -4.4374288      0              0              48.819055      48.819055      48.819055    
    246000   0.99989255     0.0048666171   1.4998243      16.854219      20.497658      0             -4.4369309      0              0              48.819614      48.819614      48.819614    
    247000   0.99728295     0.028925523    1.4959099      16.855236      20.495907      0             -4.4350111      0              0              48.820201      48.820201      48.820201    
    248000   0.99833018    -0.016216729    1.4974807      16.856143      20.499487      0             -4.4389902      0              0              48.820777      48.820777      48.820777    
    249000   1.0034883      0.01810047     1.5052178      16.855108      20.498686      0             -4.4380932      0              0              48.821332      48.821332      48.821332    
    250000   1.0035686     -0.00073359015  1.5053383      16.855749      20.501986      0             -4.4409512      0              0              48.821931      48.821931      48.821931    
    251000   0.99658474     0.018437911    1.4948626      16.857787      20.500958      0             -4.4372755      0              0              48.822547      48.822547      48.822547    
    252000   0.9965224     -0.019987937    1.4947691      16.852711      20.497961      0             -4.4396889      0              0              48.823129      48.823129      48.823129    
    253000   0.99683326    -0.02067759     1.4952354      16.856772      20.497797      0             -4.4374929      0              0              48.823646      48.823646      48.823646    
    254000   0.99733645    -0.029453606    1.4959902      16.862454      20.501171      0             -4.4354957      0              0              48.824137      48.824137      48.824137    
    255000   0.99956512     0.0034787506   1.4993331      16.861649      20.499248      0             -4.4341719      0              0              48.824598      48.824598      48.824598    
    256000   0.99952525     0.014210653    1.4992733      16.859674      20.497165      0             -4.434055       0              0              48.825124      48.825124      48.825124    
    257000   0.99665016    -0.0066009891   1.4949607      16.854028      20.497852      0             -4.4398021      0              0              48.825645      48.825645      48.825645    
    258000   0.99506231    -0.0067285852   1.492579       16.855441      20.49877       0             -4.4370717      0              0              48.826057      48.826057      48.826057    
    259000   0.99844313     0.0041851573   1.4976502      16.855631      20.501233      0             -4.4412145      0              0              48.826295      48.826295      48.826295    
    260000   1.0003246     -0.029063982    1.5004724      16.85687       20.498975      0             -4.4385506      0              0              48.826448      48.826448      48.826448    
    261000   0.99767633     0.040011611    1.4965         16.863569      20.499745      0             -4.4330584      0              0              48.826592      48.826592      48.826592    
    262000   1.0011717     -0.033093511    1.5017429      16.860404      20.499049      0             -4.43539        0              0              48.826787      48.826787      48.826787    
    263000   1.0008737     -0.038433785    1.501296       16.860095      20.499029      0             -4.4337127      0              0              48.82699       48.82699       48.82699     
    264000   0.99691455     0.010701236    1.4953573      16.858719      20.495467      0             -4.4334716      0              0              48.827216      48.827216      48.827216    
    265000   0.99947806    -0.067608051    1.4992025      16.852224      20.496637      0             -4.4393634      0              0              48.827387      48.827387      48.827387    
    266000   0.99742874    -0.050332198    1.4961286      16.859974      20.497204      0             -4.4327697      0              0              48.827501      48.827501      48.827501    
    267000   1.0000996     -0.0071882006   1.5001348      16.863967      20.50112       0             -4.4341415      0              0              48.827612      48.827612      48.827612    
    268000   1.0032498     -0.0097928296   1.5048601      16.858783      20.49887       0             -4.4349456      0              0              48.827733      48.827733      48.827733    
    269000   1.0038079      0.023919989    1.5056972      16.853842      20.499031      0             -4.4374082      0              0              48.827969      48.827969      48.827969    
    270000   1.0005202     -0.015329501    1.5007657      16.8545        20.498296      0             -4.4352326      0              0              48.828236      48.828236      48.828236    
    271000   0.99634875     0.025974154    1.4945086      16.857519      20.500986      0             -4.4346307      0              0              48.828417      48.828417      48.828417    
    272000   0.99582597    -0.047915878    1.4937245      16.86043       20.500838      0             -4.4354343      0              0              48.828521      48.828521      48.828521    
    273000   1.00463        0.043637434    1.5069304      16.858091      20.498157      0             -4.4320084      0              0              48.828561      48.828561      48.828561    
    274000   1.0018769     -0.0058391918   1.5028008      16.862695      20.500346      0             -4.4316097      0              0              48.828663      48.828663      48.828663    
    275000   0.99927011     0.0042282997   1.4988906      16.861197      20.499123      0             -4.43136        0              0              48.828796      48.828796      48.828796    
    276000   0.99843126    -0.015501289    1.4976324      16.857657      20.498141      0             -4.4341522      0              0              48.828913      48.828913      48.828913    
    277000   0.9975444     -0.039198453    1.4963021      16.858585      20.500061      0             -4.433575       0              0              48.828934      48.828934      48.828934    
    278000   0.99841627    -0.041893345    1.4976099      16.862059      20.502775      0             -4.4346852      0              0              48.828911      48.828911      48.828911    
    279000   1.0016928     -0.0090813139   1.5025246      16.866212      20.502918      0             -4.4332514      0              0              48.828854      48.828854      48.828854    
    280000   1.0000015      0.056962341    1.4999877      16.865146      20.504409      0             -4.4347194      0              0              48.828814      48.828814      48.828814    
    281000   0.99589524     0.0050723486   1.4938284      16.864398      20.504747      0             -4.4353461      0              0              48.828799      48.828799      48.828799    
    282000   0.99786276     0.0015089921   1.4967796      16.860932      20.500944      0             -4.4343722      0              0              48.828794      48.828794      48.828794    
    283000   1.0023824      0.0074351667   1.503559       16.855564      20.499174      0             -4.4378399      0              0              48.828749      48.828749      48.828749    
    284000   1.0002682      0.028214625    1.5003878      16.861013      20.50008       0             -4.4331363      0              0              48.828678      48.828678      48.828678    
    285000   1.005862      -0.020711413    1.5087784      16.854929      20.498883      0             -4.4371825      0              0              48.828611      48.828611      48.828611    
    286000   0.99915511    -0.022673068    1.4987181      16.860059      20.49874       0             -4.433848       0              0              48.828583      48.828583      48.828583    
    287000   0.99859403    -0.023309556    1.4978765      16.853949      20.496969      0             -4.4368778      0              0              48.828559      48.828559      48.828559    
    288000   0.99816604    -0.057083689    1.4972345      16.852944      20.498081      0             -4.4374385      0              0              48.828449      48.828449      48.828449    
    289000   1.0008482     -0.020354519    1.5012577      16.855423      20.496024      0             -4.4368092      0              0              48.828209      48.828209      48.828209    
    290000   1.0002292      0.056144547    1.5003292      16.863134      20.50008       0             -4.4335203      0              0              48.827958      48.827958      48.827958    
    291000   1.001033      -0.010826592    1.5015349      16.860557      20.499119      0             -4.43608        0              0              48.827727      48.827727      48.827727    
    292000   1.0038698      0.012684899    1.5057901      16.852958      20.497767      0             -4.4400277      0              0              48.827496      48.827496      48.827496    
    293000   0.99686944    -0.0031633815   1.4952897      16.858416      20.499583      0             -4.434262       0              0              48.827207      48.827207      48.827207    
    294000   0.99745633     0.025225213    1.49617        16.854455      20.500444      0             -4.4385856      0              0              48.826879      48.826879      48.826879    
    295000   0.99763057     0.0010370586   1.4964313      16.852895      20.496884      0             -4.4360123      0              0              48.826443      48.826443      48.826443    
    296000   1.0023747      0.0049933663   1.5035475      16.850446      20.495925      0             -4.4382745      0              0              48.825947      48.825947      48.825947    
    297000   1.0044724      0.039532509    1.506694       16.853382      20.497109      0             -4.435627       0              0              48.825398      48.825398      48.825398    
    298000   1.0019797     -0.0021711998   1.502955       16.857555      20.500986      0             -4.4373829      0              0              48.824842      48.824842      48.824842    
    299000   1.0007841     -0.010038617    1.5011616      16.851413      20.495569      0             -4.4375158      0              0              48.824289      48.824289      48.824289    
    300000   0.997968      -0.016423805    1.4969375      16.85073       20.495858      0             -4.4383824      0              0              48.823727      48.823727      48.823727    
    301000   0.99909994     0.0048749966   1.4986354      16.852         20.495689      0             -4.4337045      0              0              48.82309       48.82309       48.82309     
    302000   1.000149       0.010630726    1.5002089      16.852642      20.495613      0             -4.437362       0              0              48.822514      48.822514      48.822514    
    303000   1.0012195      0.03226533     1.5018146      16.853323      20.495628      0             -4.4360662      0              0              48.822029      48.822029      48.822029    
    304000   1.0037941      0.021228629    1.5056766      16.851494      20.497955      0             -4.4397933      0              0              48.821687      48.821687      48.821687    
    305000   0.99932201     0.045550416    1.4989685      16.85583       20.494343      0             -4.4325952      0              0              48.82143       48.82143       48.82143     
    306000   0.99264819    -0.013920839    1.4889578      16.854701      20.497808      0             -4.4390049      0              0              48.821265      48.821265      48.821265    
    307000   0.99615865    -0.00018997381  1.4942235      16.851302      20.495785      0             -4.4379521      0              0              48.821089      48.821089      48.821089    
    308000   1.0027758     -0.049007888    1.5041491      16.848553      20.496056      0             -4.4402935      0              0              48.820887      48.820887      48.820887    
    309000   1.0011479      0.00062120748  1.5017072      16.854236      20.501489      0             -4.4391302      0              0              48.820714      48.820714      48.820714    
    310000   1.0016473     -0.009097261    1.5024564      16.853685      20.504204      0             -4.4413943      0              0              48.8206        48.8206        48.8206      
    311000   0.99911639    -0.021474236    1.4986601      16.850648      20.498125      0             -4.4408953      0              0              48.820475      48.820475      48.820475    
    312000   0.99644029    -0.026077729    1.4946459      16.847744      20.496697      0             -4.4435927      0              0              48.820301      48.820301      48.820301    
    313000   0.99876834     0.024496215    1.498138       16.849148      20.495975      0             -4.4398844      0              0              48.82009       48.82009       48.82009     
    314000   0.99968202     0.037937598    1.4995085      16.851962      20.496697      0             -4.4368873      0              0              48.81995       48.81995       48.81995     
    315000   0.99984448     0.035149407    1.4997522      16.854373      20.500684      0             -4.4372864      0              0              48.819889      48.819889      48.819889    
    316000   0.99942597     0.003993834    1.4991244      16.855434      20.497879      0             -4.4361133      0              0              48.819859      48.819859      48.819859    
    317000   1.0003134      0.049840964    1.5004555      16.854099      20.496987      0             -4.4350481      0              0              48.819851      48.819851      48.819851    
    318000   1.0020276      0.0038303859   1.5030268      16.852163      20.496755      0             -4.4368694      0              0              48.819882      48.819882      48.819882    
    319000   1.0005256      0.039152014    1.5007738      16.856115      20.49852       0             -4.4356915      0              0              48.819925      48.819925      48.819925    
    320000   1.0034327     -0.010478411    1.5051344      16.847967      20.495222      0             -4.4404346      0              0              48.819989      48.819989      48.819989    
    321000   0.99374832     0.0061701258   1.490608       16.856206      20.500171      0             -4.4363414      0              0              48.820062      48.820062      48.820062    
    322000   0.99857349     0.026962157    1.4978457      16.848847      20.494881      0             -4.4381761      0              0              48.820158      48.820158      48.820158    
    323000   1.0012136      0.012845299    1.5018058      16.855311      20.498663      0             -4.4353506      0              0              48.82026       48.82026       48.82026     
    324000   1.0026121      0.0012699271   1.5039035      16.855995      20.499787      0             -4.436743       0              0              48.820389      48.820389      48.820389    
    325000   0.99906364    -0.00024297282  1.4985809      16.856891      20.501247      0             -4.4359596      0              0              48.820587      48.820587      48.820587    
    326000   0.99699202    -0.027449184    1.4954735      16.854719      20.501028      0             -4.4385501      0              0              48.82081       48.82081       48.82081     
    327000   0.99766693     0.011305349    1.4964859      16.852728      20.49964       0             -4.4379716      0              0              48.821049      48.821049      48.821049    
    328000   1.0022843     -0.0053622184   1.5034118      16.846648      20.497262      0             -4.4417574      0              0              48.821294      48.821294      48.821294    
    329000   0.99808648     0.012134794    1.4971152      16.853661      20.498743      0             -4.4368392      0              0              48.821477      48.821477      48.821477    
    330000   1.0002556      0.049547015    1.5003688      16.851217      20.498679      0             -4.4373345      0              0              48.821672      48.821672      48.821672    
    331000   1.0002907     -0.010107664    1.5004214      16.850534      20.498939      0             -4.4367721      0              0              48.821896      48.821896      48.821896    
    332000   0.99713906    -0.041351757    1.4956941      16.855544      20.49949       0             -4.4344744      0              0              48.822095      48.822095      48.822095    
    333000   1.0010013      0.042251047    1.5014874      16.855689      20.498193      0             -4.4336984      0              0              48.82231       48.82231       48.82231     
    334000   1.0005366      0.077945207    1.5007904      16.861322      20.502728      0             -4.4319497      0              0              48.822542      48.822542      48.822542    
    335000   1.0016886     -0.030369191    1.5025183      16.851966      20.500344      0             -4.4404215      0              0              48.822792      48.822792      48.822792    
    336000   0.99862448     0.0074413973   1.4979222      16.850864      20.498602      0             -4.4388799      0              0              48.822988      48.822988      48.822988    
    337000   0.99920531     0.028735806    1.4987934      16.852359      20.497758      0             -4.4357943      0              0              48.823141      48.823141      48.823141    
    338000   0.9996235     -0.029606656    1.4994207      16.856602      20.501385      0             -4.4367258      0              0              48.823257      48.823257      48.823257    
    339000   1.0014595      0.027756082    1.5021747      16.856974      20.499929      0             -4.4354284      0              0              48.823388      48.823388      48.823388    
    340000   1.001404      -0.019619837    1.5020915      16.855078      20.498557      0             -4.437561       0              0              48.823645      48.823645      48.823645    
    341000   1.0006812      0.001254317    1.5010072      16.849355      20.497319      0             -4.4395184      0              0              48.823969      48.823969      48.823969    
    342000   1.0000064     -0.013987034    1.499995       16.847441      20.497637      0             -4.44219        0              0              48.824241      48.824241      48.824241    
    343000   0.99905608     0.020768956    1.4985696      16.853173      20.498495      0             -4.4371189      0              0              48.824399      48.824399      48.824399    
    344000   1.0009953      0.039021887    1.5014783      16.858208      20.502152      0             -4.435874       0              0              48.824506      48.824506      48.824506    
    345000   1.005511      -0.031534151    1.5082519      16.85169       20.495485      0             -4.4358843      0              0              48.824534      48.824534      48.824534    
    346000   0.99967429    -0.051554127    1.4994969      16.857195      20.498954      0             -4.4343447      0              0              48.824523      48.824523      48.824523    
    347000   1.002605      -0.025477702    1.5038929      16.851113      20.500592      0             -4.4414317      0              0              48.824469      48.824469      48.824469    
    348000   1.0001942     -0.027687353    1.5002768      16.854178      20.49683       0             -4.4360184      0              0              48.82435       48.82435       48.82435     
    349000   0.99946708    -0.029561044    1.4991861      16.856278      20.501265      0             -4.4394505      0              0              48.824182      48.824182      48.824182    
    350000   1.0015886      0.046752887    1.5023683      16.854336      20.498251      0             -4.4356324      0              0              48.823969      48.823969      48.823969    
    351000   1.0009891     -0.00157669     1.5014691      16.856777      20.50029       0             -4.4381678      0              0              48.823755      48.823755      48.823755    
    352000   1.0058633      0.022032728    1.5087803      16.85282       20.49891       0             -4.4387236      0              0              48.823519      48.823519      48.823519    
    353000   1.0024037      0.012225024    1.503591       16.854561      20.499423      0             -4.4374095      0              0              48.823308      48.823308      48.823308    
    354000   0.9964262     -0.021856718    1.4946248      16.856082      20.501222      0             -4.4382522      0              0              48.823064      48.823064      48.823064    
    355000   0.99542941     0.01308725     1.4931296      16.856405      20.50021       0             -4.4369712      0              0              48.822733      48.822733      48.822733    
    356000   1.0027711      0.07627825     1.504142       16.851056      20.499388      0             -4.4396759      0              0              48.82234       48.82234       48.82234     
    357000   1.0036026     -0.020286071    1.5053893      16.854399      20.498583      0             -4.4361063      0              0              48.82193       48.82193       48.82193     
    358000   1.0000054      0.026038584    1.4999936      16.854063      20.496524      0             -4.4344586      0              0              48.821595      48.821595      48.821595    
    359000   0.99536664     0.0062106011   1.4930355      16.85304       20.499093      0             -4.4380191      0              0              48.82129       48.82129       48.82129     
    360000   0.99835016     0.023618573    1.4975107      16.850786      20.498838      0             -4.4408132      0              0              48.820945      48.820945      48.820945    
    361000   0.99996146    -0.055232483    1.4999276      16.855936      20.501261      0             -4.438717       0              0              48.820517      48.820517      48.820517    
    362000   1.0012625     -0.049563015    1.5018791      16.856575      20.500836      0             -4.4374314      0              0              48.820038      48.820038      48.820038    
    363000   1.0044504      0.08384123     1.506661       16.85009       20.49802       0             -4.4413809      0              0              48.819608      48.819608      48.819608    
    364000   1.0024397     -0.0049629435   1.5036449      16.849408      20.497683      0             -4.4408806      0              0              48.819255      48.819255      48.819255    
    365000   0.99871917     0.045877629    1.4980642      16.852314      20.499646      0             -4.4401054      0              0              48.818924      48.818924      48.818924    
    366000   1.0026759      0.036025311    1.5039993      16.854233      20.497095      0             -4.4372026      0              0              48.81861       48.81861       48.81861     
    367000   1.0055922      0.04222239     1.5083737      16.857089      20.498876      0             -4.4364573      0              0              48.818424      48.818424      48.818424    
    368000   1.0038074     -0.013083511    1.5056966      16.852574      20.496511      0             -4.438144       0              0              48.818405      48.818405      48.818405    
    369000   0.99845248     0.021253032    1.4976642      16.853349      20.496727      0             -4.4370492      0              0              48.818472      48.818472      48.818472    
    370000   0.99625929     0.017913836    1.4943744      16.854348      20.499962      0             -4.4372916      0              0              48.818558      48.818558      48.818558    
    371000   0.99747958     0.0017922093   1.4962049      16.855555      20.501099      0             -4.4371082      0              0              48.818639      48.818639      48.818639    
    372000   1.0020202      0.0075364312   1.5030158      16.857017      20.49952       0             -4.4359087      0              0              48.818737      48.818737      48.818737    
    373000   1.0021413     -0.0027019831   1.5031974      16.857617      20.499979      0             -4.4352994      0              0              48.818917      48.818917      48.818917    
    374000   1.0021844     -0.053917127    1.5032621      16.853133      20.502262      0             -4.4431126      0              0              48.81911       48.81911       48.81911     
    375000   0.99751365     0.029515039    1.496256       16.858424      20.50262       0             -4.4389596      0              0              48.819265      48.819265      48.819265    
    376000   1.0017755      0.0052987668   1.5026486      16.852833      20.49628       0             -4.4366457      0              0              48.819452      48.819452      48.819452    
    377000   1.0022895      0.019295802    1.5034197      16.852401      20.501106      0             -4.4397459      0              0              48.819713      48.819713      48.819713    
    378000   1.0003119     -0.0090605567   1.5004533      16.85054       20.497637      0             -4.4385079      0              0              48.820003      48.820003      48.820003    
    379000   0.99706157    -0.016761982    1.4955779      16.849323      20.496822      0             -4.4397254      0              0              48.820297      48.820297      48.820297    
    380000   0.99868264     0.040271659    1.4980094      16.850102      20.496294      0             -4.4400584      0              0              48.820565      48.820565      48.820565    
    381000   1.0016681      0.022276434    1.5024876      16.854419      20.499914      0             -4.4374273      0              0              48.82077       48.82077       48.82077     
    382000   1.0018417     -0.02829443     1.502748       16.854036      20.499785      0             -4.4348497      0              0              48.820992      48.820992      48.820992    
    383000   1.0012773      0.0094290942   1.5019014      16.849471      20.498457      0             -4.4371869      0              0              48.821248      48.821248      48.821248    
    384000   0.99640576    -0.025825898    1.4945941      16.852196      20.497693      0             -4.4362241      0              0              48.821538      48.821538      48.821538    
    385000   0.99819739    -0.055348825    1.4972816      16.851378      20.498037      0             -4.4400674      0              0              48.821745      48.821745      48.821745    
    386000   0.99737506     0.027426562    1.4960481      16.857144      20.502456      0             -4.4353539      0              0              48.821863      48.821863      48.821863    
    387000   1.0002922      0.026094081    1.5004237      16.854398      20.498462      0             -4.4385006      0              0              48.821952      48.821952      48.821952    
    388000   1.0009158      0.013830305    1.5013592      16.856473      20.497838      0             -4.4356815      0              0              48.822044      48.822044      48.822044    
    389000   0.99852532    -0.022633501    1.4977735      16.858615      20.500881      0             -4.4340346      0              0              48.822208      48.822208      48.822208    
    390000   0.99797087    -0.031100545    1.4969418      16.85053       20.502122      0             -4.4435458      0              0              48.822412      48.822412      48.822412    
    391000   0.99585917    -0.039660355    1.4937743      16.851418      20.498284      0             -4.4371754      0              0              48.822544      48.822544      48.822544    
    392000   1.0000702     -0.021072021    1.5000907      16.84959       20.497532      0             -4.4380401      0              0              48.822625      48.822625      48.822625    
    393000   0.99982761    -0.054852319    1.4997269      16.852218      20.500086      0             -4.438808       0              0              48.822623      48.822623      48.822623    
    394000   0.99880199    -0.013826267    1.4981885      16.854436      20.499659      0             -4.4369376      0              0              48.822513      48.822513      48.822513    
    395000   1.0018122     -0.0064140791   1.5027037      16.850915      20.49897       0             -4.4382657      0              0              48.822396      48.822396      48.822396    
    396000   0.99922356    -0.048674122    1.4988208      16.852997      20.499599      0             -4.4380975      0              0              48.822221      48.822221      48.822221    
    397000   0.99741395     0.028950945    1.4961064      16.850853      20.496768      0             -4.4376108      0              0              48.821967      48.821967      48.821967    
    398000   0.99769146     0.010122968    1.4965227      16.85211       20.500131      0             -4.4420875      0              0              48.821693      48.821693      48.821693    
    399000   0.99966889     0.042191557    1.4994888      16.858011      20.499277      0             -4.4336278      0              0              48.821376      48.821376      48.821376    
    400000   1.0018786      0.050026362    1.5028033      16.856153      20.498797      0             -4.4331736      0              0              48.821075      48.821075      48.821075    
    401000   0.99902875     0.01340044     1.4985286      16.854777      20.499574      0             -4.4344085      0              0              48.820833      48.820833      48.820833    
    402000   0.99562568     0.020331754    1.493424       16.855267      20.50038       0             -4.4347012      0              0              48.820591      48.820591      48.820591    
    403000   0.99893575     0.0020782422   1.4983891      16.850774      20.498264      0             -4.4383435      0              0              48.820358      48.820358      48.820358    
    404000   0.99990165     0.0037417718   1.4998379      16.853073      20.500691      0             -4.4382565      0              0              48.820167      48.820167      48.820167    
    405000   1.0044938     -0.020633676    1.5067261      16.849043      20.499008      0             -4.44034        0              0              48.819995      48.819995      48.819995    
    406000   0.99656532     0.034941493    1.4948335      16.857106      20.500488      0             -4.4347614      0              0              48.819797      48.819797      48.819797    
    407000   0.99998088    -0.042618873    1.4999568      16.843622      20.49306       0             -4.4393176      0              0              48.819616      48.819616      48.819616    
    408000   0.9965794      0.013402925    1.4948546      16.850171      20.500216      0             -4.4400296      0              0              48.819462      48.819462      48.819462    
    409000   1.0019916     -0.012363365    1.5029728      16.849013      20.499328      0             -4.4384795      0              0              48.819257      48.819257      48.819257    
    410000   1.0014823      0.022201813    1.5022089      16.850101      20.498236      0             -4.4395857      0              0              48.819018      48.819018      48.819018    
    411000   0.99846084     0.016438774    1.4976767      16.851396      20.496953      0             -4.4380433      0              0              48.818751      48.818751      48.818751    
    412000   0.9965979     -0.0013055826   1.4948824      16.848946      20.50128       0             -4.442574       0              0              48.818485      48.818485      48.818485    
    413000   0.99700708    -0.082832827    1.4954961      16.844373      20.498042      0             -4.4445673      0              0              48.818191      48.818191      48.818191    
    414000   0.99817534     0.0076718612   1.4972485      16.849238      20.49657       0             -4.4378712      0              0              48.817822      48.817822      48.817822    
    415000   1.0025493      0.00019004633  1.5038094      16.84919       20.500429      0             -4.4422845      0              0              48.817421      48.817421      48.817421    
    416000   0.99953608    -0.00076328375  1.4992896      16.855314      20.500927      0             -4.4382363      0              0              48.817037      48.817037      48.817037    
    417000   0.99885452     0.02325225     1.4982672      16.855618      20.501278      0             -4.4375797      0              0              48.816688      48.816688      48.816688    
    418000   0.99644054    -0.0092855543   1.4946463      16.849993      20.499456      0             -4.4428062      0              0              48.816318      48.816318      48.816318    
    419000   0.99397238     0.0029829942   1.4909441      16.850422      20.498685      0             -4.439665       0              0              48.815921      48.815921      48.815921    
    420000   0.99810137    -0.011730583    1.4971375      16.849269      20.49965       0             -4.4410054      0              0              48.815523      48.815523      48.815523    
    421000   1.0008925     -0.04566711     1.5013242      16.849529      20.500955      0             -4.4439103      0              0              48.815178      48.815178      48.815178    
    422000   0.99693652     0.015116982    1.4953903      16.856905      20.502695      0             -4.4367764      0              0              48.814862      48.814862      48.814862    
    423000   0.99995389     0.00093334757  1.4999163      16.852036      20.501193      0             -4.4402349      0              0              48.814636      48.814636      48.814636    
    424000   1.0032206      0.023190568    1.5048163      16.843612      20.497241      0             -4.442829       0              0              48.814474      48.814474      48.814474    
    425000   0.99424405    -0.070278738    1.4913516      16.846713      20.501269      0             -4.4452419      0              0              48.814366      48.814366      48.814366    
    426000   0.99664964     0.007387363    1.49496        16.845793      20.496575      0             -4.4418794      0              0              48.814194      48.814194      48.814194    
    427000   0.99688956    -0.010723465    1.4953198      16.852678      20.500234      0             -4.4395649      0              0              48.813989      48.813989      48.813989    
    428000   1.0008401     -0.0081602229   1.5012455      16.850788      20.498948      0             -4.4383677      0              0              48.813815      48.813815      48.813815    
    429000   0.99675706     0.0054435454   1.4951211      16.857973      20.50364       0             -4.4396088      0              0              48.813666      48.813666      48.813666    
    430000   1.0022953      0.047526682    1.5034284      16.84937       20.500756      0             -4.4418308      0              0              48.813534      48.813534      48.813534    
    431000   0.99967041    -0.056681778    1.4994911      16.847336      20.496845      0             -4.4430344      0              0              48.81349       48.81349       48.81349     
    432000   0.99481301    -0.064431876    1.492205       16.851327      20.491869      0             -4.4353867      0              0              48.813479      48.813479      48.813479    
    433000   1.000586       0.0048324257   1.5008645      16.850845      20.496093      0             -4.4384192      0              0              48.813507      48.813507      48.813507    
    434000   1.002065      -0.0083201703   1.5030829      16.853109      20.499786      0             -4.438978       0              0              48.813584      48.813584      48.813584    
    435000   1.0029859     -0.04693136     1.5044642      16.850016      20.499022      0             -4.4418006      0              0              48.813702      48.813702      48.813702    
    436000   1.002395       0.0076430716   1.503578       16.846851      20.497548      0             -4.4414289      0              0              48.813871      48.813871      48.813871    
    437000   0.99684068    -0.0049261246   1.4952465      16.847462      20.496889      0             -4.4412443      0              0              48.814069      48.814069      48.814069    
    438000   0.99734219     0.030850616    1.4959988      16.842021      20.497857      0             -4.4435105      0              0              48.814239      48.814239      48.814239    
    439000   1.0002657     -0.0044791314   1.500384       16.849427      20.500419      0             -4.4420331      0              0              48.81439       48.81439       48.81439     
    440000   1.0034129      0.041570221    1.5051047      16.84862       20.498597      0             -4.4401393      0              0              48.81456       48.81456       48.81456     
    441000   1.0037776     -0.018460285    1.5056517      16.845456      20.498722      0             -4.4414235      0              0              48.814773      48.814773      48.814773    
    442000   0.99706525     0.052422996    1.4955834      16.849671      20.49904       0             -4.4398812      0              0              48.815025      48.815025      48.815025    
    443000   0.99747455     0.012010037    1.4961973      16.847738      20.497839      0             -4.4413651      0              0              48.815278      48.815278      48.815278    
    444000   1.0015624      0.011928695    1.502329       16.849639      20.496016      0             -4.4359951      0              0              48.815477      48.815477      48.815477    
    445000   1.0030977      0.005544576    1.504632       16.852701      20.499782      0             -4.4389252      0              0              48.81579       48.81579       48.81579     
    446000   1.0045323     -0.019795359    1.5067839      16.847143      20.498724      0             -4.4419878      0              0              48.816172      48.816172      48.816172    
    447000   0.99698138     0.045205472    1.4954576      16.853917      20.500901      0             -4.4368025      0              0              48.816593      48.816593      48.816593    
    448000   0.9989385     -0.0697571      1.4983932      16.849797      20.50286       0             -4.4442268      0              0              48.817004      48.817004      48.817004    
    449000   0.99997019    -0.019844153    1.4999407      16.849159      20.497788      0             -4.4406327      0              0              48.817309      48.817309      48.817309    
    450000   1.0034439      0.014622551    1.5051512      16.85153       20.497811      0             -4.435716       0              0              48.817579      48.817579      48.817579    
    451000   1.0050223      0.013258514    1.5075188      16.855675      20.503285      0             -4.4361184      0              0              48.817908      48.817908      48.817908    
    452000   1.0028364      0.083750724    1.50424        16.851998      20.50096       0             -4.4374132      0              0              48.818318      48.818318      48.818318    
    453000   0.99870963     0.04674507     1.4980499      16.852992      20.499783      0             -4.4351634      0              0              48.818829      48.818829      48.818829    
    454000   0.99989319    -0.069134441    1.4998252      16.84884       20.497241      0             -4.4381147      0              0              48.819391      48.819391      48.819391    
    455000   0.99931338    -0.027446497    1.4989555      16.848688      20.499664      0             -4.44016        0              0              48.819937      48.819937      48.819937    
    456000   1.0009305     -0.030738283    1.5013812      16.849092      20.498564      0             -4.4386714      0              0              48.820456      48.820456      48.820456    
    457000   1.0036676     -0.0056126749   1.5054868      16.852526      20.501792      0             -4.4406338      0              0              48.820957      48.820957      48.820957    
    458000   1.0025052      0.01608312     1.5037432      16.856501      20.504622      0             -4.4390841      0              0              48.821462      48.821462      48.821462    
    459000   0.99978937    -0.0035272861   1.4996695      16.852883      20.498795      0             -4.4368732      0              0              48.821952      48.821952      48.821952    
    460000   0.99957426    -0.02674274     1.4993468      16.849319      20.49368       0             -4.4363256      0              0              48.822409      48.822409      48.822409    
    461000   0.99814253     0.0005973243   1.4971993      16.85491       20.501359      0             -4.4374913      0              0              48.822894      48.822894      48.822894    
    462000   0.99787453    -0.017036076    1.4967973      16.859906      20.499987      0             -4.4307587      0              0              48.823398      48.823398      48.823398    
    463000   1.0021396      0.033093361    1.5031949      16.853965      20.499228      0             -4.4338638      0              0              48.823926      48.823926      48.823926    
    464000   0.99503029    -0.025514955    1.492531       16.854306      20.498192      0             -4.4346342      0              0              48.824529      48.824529      48.824529    
    465000   0.99692423    -0.0075826314   1.4953718      16.848357      20.493967      0             -4.4336405      0              0              48.82508       48.82508       48.82508     
    466000   1.0006028     -0.056472072    1.5008896      16.847031      20.4986        0             -4.4398792      0              0              48.825538      48.825538      48.825538    
    467000   1.0019096      0.011441321    1.5028499      16.849459      20.496488      0             -4.4366071      0              0              48.82585       48.82585       48.82585     
    468000   1.0026802      0.0086167231   1.5040057      16.852204      20.49908       0             -4.4374661      0              0              48.826125      48.826125      48.826125    
    469000   1.0045268     -0.020545276    1.5067756      16.853158      20.499659      0             -4.4352604      0              0              48.826399      48.826399      48.826399    
    470000   1.0028693     -0.0013660973   1.5042893      16.853463      20.498867      0             -4.4347456      0              0              48.826749      48.826749      48.826749    
    471000   0.997016      -0.017392359    1.4955095      16.853699      20.499455      0             -4.4350282      0              0              48.827202      48.827202      48.827202    
    472000   0.99597228     0.0012696329   1.4939439      16.852774      20.498544      0             -4.4349677      0              0              48.827668      48.827668      48.827668    
    473000   1.0020096     -0.064849627    1.5029998      16.849209      20.497614      0             -4.4376255      0              0              48.828053      48.828053      48.828053    
    474000   1.0024223     -0.021432476    1.5036189      16.854072      20.501137      0             -4.4357443      0              0              48.828321      48.828321      48.828321    
    475000   1.000854      -0.020142675    1.5012664      16.855657      20.499164      0             -4.4328396      0              0              48.828526      48.828526      48.828526    
    476000   1.0020844      0.024574246    1.5031121      16.85254       20.497082      0             -4.4342252      0              0              48.828705      48.828705      48.828705    
    477000   1.0010119     -0.021412371    1.5015033      16.853083      20.499519      0             -4.4367378      0              0              48.828859      48.828859      48.828859    
    478000   0.99590622    -0.036375073    1.4938448      16.859197      20.502474      0             -4.4353685      0              0              48.828989      48.828989      48.828989    
    479000   1.0022125     -0.027857002    1.5033042      16.850453      20.495931      0             -4.4360219      0              0              48.829106      48.829106      48.829106    
    480000   1.0007724     -0.019123547    1.5011441      16.858879      20.500982      0             -4.4333144      0              0              48.829214      48.829214      48.829214    
    481000   1.0042914      0.016625283    1.5064226      16.85559       20.503649      0             -4.4354094      0              0              48.829331      48.829331      48.829331    
    482000   1.0003576     -0.054827884    1.5005218      16.852803      20.502179      0             -4.438947       0              0              48.829469      48.829469      48.829469    
    483000   0.99698263    -0.026029472    1.4954594      16.854754      20.501266      0             -4.4358285      0              0              48.829522      48.829522      48.829522    
    484000   0.99989061    -0.015377042    1.4998214      16.853506      20.496691      0             -4.4326249      0              0              48.829522      48.829522      48.829522    
    485000   1.001865      -0.00052560563  1.502783       16.854133      20.498977      0             -4.4342064      0              0              48.829499      48.829499      48.829499    
    486000   1.0031368     -0.056153421    1.5046907      16.855655      20.498957      0             -4.4337951      0              0              48.829459      48.829459      48.829459    
    487000   1.0009152     -0.00052260404  1.5013582      16.858061      20.503105      0             -4.4342702      0              0              48.829416      48.829416      48.829416    
    488000   0.99961028    -0.085816689    1.4994009      16.85232       20.499222      0             -4.4372525      0              0              48.829379      48.829379      48.829379    
    489000   0.99732031    -0.01401755     1.4959659      16.851844      20.495013      0             -4.4326415      0              0              48.829291      48.829291      48.829291    
    490000   0.99947871    -0.056244722    1.4992035      16.851016      20.496188      0             -4.4364389      0              0              48.829141      48.829141      48.829141    
    491000   1.0018673      0.025115509    1.5027864      16.856511      20.499         0             -4.4343385      0              0              48.828915      48.828915      48.828915    
    492000   1.0045509     -0.028117249    1.5068118      16.854337      20.499251      0             -4.436026       0              0              48.82874       48.82874       48.82874     
    493000   1.0001366     -0.019948482    1.5001903      16.857763      20.502334      0             -4.4344896      0              0              48.828665      48.828665      48.828665    
    494000   0.99862622     0.016917168    1.4979248      16.856193      20.50087       0             -4.4332256      0              0              48.828618      48.828618      48.828618    
    495000   1.0004789     -0.01674966     1.5007038      16.850548      20.501804      0             -4.4399746      0              0              48.828544      48.828544      48.828544    
    496000   0.99924632    -0.03724315     1.4988549      16.851003      20.498315      0             -4.4368802      0              0              48.828428      48.828428      48.828428    
    497000   0.99983144    -0.010324361    1.4997326      16.852742      20.497613      0             -4.4342853      0              0              48.828296      48.828296      48.828296    
    498000   1.0021728     -0.0052823901   1.5032446      16.861142      20.506395      0             -4.436506       0              0              48.828161      48.828161      48.828161    
    499000   1.005235      -0.049543351    1.5078379      16.854972      20.50006       0             -4.4347358      0              0              48.828008      48.828008      48.828008    
    500000   1.0004748     -0.010888703    1.5006976      16.854289      20.499458      0             -4.4353357      0              0              48.827843      48.827843      48.827843    
Loop time of 22653.1 on 1 procs for 500000 steps with 103098 atoms

Performance: 1907.026 tau/day, 22.072 timesteps/s, 2.276 Matom-step/s
99.8% CPU use with 1 MPI tasks x no OpenMP threads

MPI task timing breakdown:
Section |  min time  |  avg time  |  max time  |%varavg| %total
---------------------------------------------------------------
Pair    | 16957      | 16957      | 16957      |   0.0 | 74.86
Bond    | 2347.5     | 2347.5     | 2347.5     |   0.0 | 10.36
Neigh   | 1851.1     | 1851.1     | 1851.1     |   0.0 |  8.17
Comm    | 143.09     | 143.09     | 143.09     |   0.0 |  0.63
Output  | 1.3954     | 1.3954     | 1.3954     |   0.0 |  0.01
Modify  | 1185       | 1185       | 1185       |   0.0 |  5.23
Other   |            | 167.7      |            |       |  0.74

Nlocal:         103098 ave      103098 max      103098 min
Histogram: 1 0 0 0 0 0 0 0 0 0
Nghost:          39706 ave       39706 max       39706 min
Histogram: 1 0 0 0 0 0 0 0 0 0
Neighs:    4.02975e+06 ave 4.02975e+06 max 4.02975e+06 min
Histogram: 1 0 0 0 0 0 0 0 0 0

Total # of neighbors = 4029746
Ave neighs/atom = 39.086558
Ave special neighs/atom = 1.980601
Neighbor list builds = 16560
Dangerous builds = 0

undump          dump2


#################Production##################

reset_timestep	0

variable f file python.txt

variable s equal next(f)

dump dump3 all custom 1000 production_SemiFlexible_dispersity.dump id mol type q xs ys zs ix iy iz

dump_modify dump3 sort id #sort per-atom lines by atom ID

dump_modify dump3 every v_s

dump_modify dump3 append yes

restart 1048576 imers.restart

run	1001390
Generated 0 of 0 mixed pair_coeff terms from geometric mixing rule
Per MPI rank memory allocation (min/avg/max) = 78.2 | 78.2 | 78.2 Mbytes
   Step          Temp          Press          KinEng         PotEng         E_bond        E_impro         E_vdwl         E_coul         E_long           Lx             Ly             Lz      
         0   1.0004748     -0.010888703    1.5006976      16.854289      20.499458      0             -4.4353357      0              0              48.827843      48.827843      48.827843    
      1000   1.0024113      0.017108817    1.5036024      16.847091      20.494623      0             -4.4359338      0              0              48.827645      48.827645      48.827645    
      2000   0.99977922    -0.064813467    1.4996543      16.848895      20.49922       0             -4.4393957      0              0              48.82742       48.82742       48.82742     
      3000   0.99701967     0.0042695997   1.495515       16.853279      20.499261      0             -4.4341382      0              0              48.827122      48.827122      48.827122    
      4000   1.0043514      0.004204755    1.5065125      16.850003      20.495646      0             -4.4344577      0              0              48.826778      48.826778      48.826778    
      5000   1.0049713      0.029815546    1.5074423      16.852767      20.499753      0             -4.4364315      0              0              48.826419      48.826419      48.826419    
      6000   0.99524952     0.0050585358   1.4928598      16.861454      20.504389      0             -4.43397        0              0              48.826092      48.826092      48.826092    
      7000   0.99944168    -0.027805103    1.499148       16.850853      20.496244      0             -4.4370092      0              0              48.825785      48.825785      48.825785    
      8000   0.99761185    -0.02300413     1.4964033      16.854701      20.501202      0             -4.4376064      0              0              48.825537      48.825537      48.825537    
      9000   1.0023011      0.047199688    1.5034371      16.848748      20.497159      0             -4.4372963      0              0              48.825262      48.825262      48.825262    
     10000   0.99999582     0.05906319     1.4999792      16.853163      20.496913      0             -4.4360115      0              0              48.824947      48.824947      48.824947    
     11000   1.0031211      0.013868173    1.5046671      16.851406      20.496125      0             -4.4371241      0              0              48.824649      48.824649      48.824649    
     12000   1.0048252      0.049280514    1.5072231      16.859555      20.503048      0             -4.4373671      0              0              48.824436      48.824436      48.824436    
     13000   1.0049021      0.052078413    1.5073386      16.857665      20.501647      0             -4.4347378      0              0              48.824319      48.824319      48.824319    
     14000   1.0004891      0.00038572126  1.5007191      16.857037      20.497837      0             -4.4323245      0              0              48.82427       48.82427       48.82427     
     15000   0.99940215     0.074742192    1.4990887      16.854229      20.497195      0             -4.4331032      0              0              48.824223      48.824223      48.824223    
     16000   1.0002002     -0.018135418    1.5002857      16.848821      20.500017      0             -4.441219       0              0              48.824175      48.824175      48.824175    
     17000   0.99680553    -0.0304571      1.4951938      16.854011      20.499152      0             -4.4376839      0              0              48.824052      48.824052      48.824052    
     18000   1.0020797      0.020546659    1.503105       16.856662      20.49926       0             -4.4354459      0              0              48.823814      48.823814      48.823814    
     19000   1.0010433      0.055406865    1.5015504      16.860821      20.499797      0             -4.4324829      0              0              48.823591      48.823591      48.823591    
     20000   1.0004996      0.027641488    1.5007349      16.856892      20.500869      0             -4.4357489      0              0              48.823448      48.823448      48.823448    
     21000   0.99882368    -0.024506071    1.498221       16.853319      20.502528      0             -4.4395423      0              0              48.823355      48.823355      48.823355    
     22000   1.0019011      0.011313425    1.5028371      16.846489      20.49982       0             -4.4397336      0              0              48.823332      48.823332      48.823332    
     23000   0.99615268    -0.041619206    1.4942145      16.854147      20.502247      0             -4.4374658      0              0              48.823248      48.823248      48.823248    
     24000   1.0011707     -0.047014463    1.5017415      16.849209      20.500538      0             -4.4418758      0              0              48.823067      48.823067      48.823067    
     25000   1.0027587      0.007961663    1.5041235      16.858447      20.502821      0             -4.435318       0              0              48.822853      48.822853      48.822853    
     26000   0.99890629     0.045096509    1.4983449      16.863473      20.500591      0             -4.4303783      0              0              48.822729      48.822729      48.822729    
     27000   0.9980175      0.066068073    1.4970117      16.85804       20.49854       0             -4.4325243      0              0              48.822727      48.822727      48.822727    
     28000   0.99968769    -0.0050573653   1.499517       16.852672      20.496609      0             -4.4375419      0              0              48.822809      48.822809      48.822809    
     29000   1.0018199      0.0121472      1.5027153      16.850115      20.497979      0             -4.4379038      0              0              48.822866      48.822866      48.822866    
     30000   0.99804313    -0.0010653469   1.4970502      16.855799      20.500964      0             -4.4337635      0              0              48.822899      48.822899      48.822899    
     31000   1.0004296      0.013110922    1.5006298      16.854722      20.500827      0             -4.435451       0              0              48.822956      48.822956      48.822956    
     32000   1.0051475      0.027302686    1.5077066      16.851217      20.496592      0             -4.4341166      0              0              48.823027      48.823027      48.823027    
     33000   0.99981108    -0.048509929    1.4997021      16.85428       20.499756      0             -4.4348614      0              0              48.823125      48.823125      48.823125    
     34000   0.99547929    -0.0092695476   1.4932045      16.854841      20.501703      0             -4.4356459      0              0              48.823208      48.823208      48.823208    
     35000   0.99661001    -0.019661498    1.4949005      16.854371      20.500038      0             -4.4358605      0              0              48.823264      48.823264      48.823264    
     36000   1.0025859      0.038762602    1.5038642      16.853381      20.49897       0             -4.4332083      0              0              48.823269      48.823269      48.823269    
     37000   1.0043135     -0.015885317    1.5064556      16.854316      20.501261      0             -4.4370655      0              0              48.823336      48.823336      48.823336    
     38000   1.0029638      0.0078832277   1.5044312      16.849145      20.498536      0             -4.4390446      0              0              48.823458      48.823458      48.823458    
     39000   0.99721741    -0.0078562253   1.4958116      16.851924      20.496723      0             -4.4344551      0              0              48.823619      48.823619      48.823619    
     40000   0.99692322     0.038558613    1.4953703      16.854644      20.50393       0             -4.440026       0              0              48.823753      48.823753      48.823753    
     41000   1.0011948     -0.0076538958   1.5017776      16.853746      20.50104       0             -4.4371032      0              0              48.82382       48.82382       48.82382     
     42000   1.0042244      0.0080158155   1.506322       16.851902      20.498654      0             -4.4355385      0              0              48.823864      48.823864      48.823864    
     43000   1.0018707     -0.026207117    1.5027914      16.85026       20.499176      0             -4.4392114      0              0              48.823892      48.823892      48.823892    
     44000   0.99533448    -0.027400631    1.4929872      16.852937      20.498924      0             -4.4375889      0              0              48.823876      48.823876      48.823876    
     45000   0.99849532     0.051441967    1.4977284      16.851325      20.495176      0             -4.4372743      0              0              48.82384       48.82384       48.82384     
     46000   1.0011266     -0.042429336    1.5016754      16.85219       20.502046      0             -4.4410021      0              0              48.823859      48.823859      48.823859    
     47000   1.0026745      0.025920709    1.5039972      16.850125      20.497174      0             -4.4408249      0              0              48.823838      48.823838      48.823838    
     48000   1.0066036     -0.073193386    1.5098908      16.844138      20.495172      0             -4.4401318      0              0              48.823745      48.823745      48.823745    
     49000   0.99992069     0.03572479     1.4998665      16.849963      20.50224       0             -4.4397223      0              0              48.823604      48.823604      48.823604    
     50000   0.99640241     0.0043821351   1.4945891      16.847471      20.497132      0             -4.4375572      0              0              48.82338       48.82338       48.82338     
     51000   0.99592847    -0.025319223    1.4938782      16.848124      20.499943      0             -4.4387227      0              0              48.82305       48.82305       48.82305     
     52000   1.0015075      0.0097050185   1.5022466      16.847754      20.498336      0             -4.4383149      0              0              48.822612      48.822612      48.822612    
     53000   0.99957395     0.018171191    1.4993464      16.855177      20.500289      0             -4.4335218      0              0              48.822102      48.822102      48.822102    
     54000   1.0015663      0.0098500081   1.5023349      16.850744      20.499939      0             -4.4374214      0              0              48.821599      48.821599      48.821599    
     55000   1.0007756     -0.010147853    1.5011488      16.849799      20.49757       0             -4.4377862      0              0              48.821052      48.821052      48.821052    
     56000   0.99906738    -0.054379203    1.4985865      16.850463      20.498031      0             -4.4378013      0              0              48.820468      48.820468      48.820468    
     57000   1.0007927     -0.05435876     1.5011745      16.848808      20.496382      0             -4.438143       0              0              48.819876      48.819876      48.819876    
     58000   1.0011828     -0.027067061    1.5017596      16.853195      20.500341      0             -4.4376772      0              0              48.819259      48.819259      48.819259    
     59000   0.9984576      0.034787803    1.4976719      16.85986       20.502463      0             -4.4338626      0              0              48.818665      48.818665      48.818665    
     60000   1.0028575      0.028784841    1.5042717      16.852793      20.496635      0             -4.4371884      0              0              48.818124      48.818124      48.818124    
     61000   1.0004066     -0.0098983215   1.5005954      16.848694      20.497598      0             -4.4400029      0              0              48.817679      48.817679      48.817679    
     62000   0.99580076     0.077270442    1.4936866      16.850387      20.497632      0             -4.436334       0              0              48.817283      48.817283      48.817283    
     63000   0.99803922     0.027508208    1.4970443      16.850022      20.495942      0             -4.4347696      0              0              48.816902      48.816902      48.816902    
     64000   0.99879448    -0.032628196    1.4981772      16.853377      20.501967      0             -4.4404926      0              0              48.816532      48.816532      48.816532    
     65000   1.0038303      0.033819727    1.5057308      16.849336      20.49738       0             -4.4381247      0              0              48.816174      48.816174      48.816174    
     66000   1.0047417      0.0079342488   1.5070979      16.854158      20.49739       0             -4.4339012      0              0              48.815921      48.815921      48.815921    
     67000   1.0045913      0.054614698    1.5068723      16.853218      20.499283      0             -4.4400701      0              0              48.815858      48.815858      48.815858    
     68000   0.9983647     -0.0047578668   1.4975325      16.854035      20.499146      0             -4.4375933      0              0              48.815978      48.815978      48.815978    
     69000   0.99779908     0.066023335    1.4966841      16.850634      20.498377      0             -4.4393837      0              0              48.816173      48.816173      48.816173    
     70000   0.99878694     0.029472796    1.4981659      16.849324      20.49662       0             -4.4374293      0              0              48.816315      48.816315      48.816315    
     71000   1.0003505      0.06372791     1.5005111      16.854562      20.501158      0             -4.4364684      0              0              48.816407      48.816407      48.816407    
     72000   1.0064249      0.042815014    1.5096227      16.849811      20.498986      0             -4.4386463      0              0              48.816591      48.816591      48.816591    
     73000   1.0028851      0.015292248    1.5043131      16.850633      20.499404      0             -4.4393671      0              0              48.816899      48.816899      48.816899    
     74000   1.0002096     -0.022921338    1.5002999      16.850977      20.49792       0             -4.4374712      0              0              48.817275      48.817275      48.817275    
     75000   0.99898434     0.016320728    1.498462       16.851528      20.499671      0             -4.4389446      0              0              48.817662      48.817662      48.817662    
     76000   1.0036028     -0.0087358741   1.5053896      16.844062      20.495536      0             -4.4413896      0              0              48.818022      48.818022      48.818022    
     77000   0.99559133     0.033816623    1.4933725      16.856656      20.498631      0             -4.4320101      0              0              48.818392      48.818392      48.818392    
     78000   1.0009433     -0.019847051    1.5014004      16.852404      20.499211      0             -4.4390008      0              0              48.818831      48.818831      48.818831    
     79000   1.0007517      0.027559853    1.5011129      16.857554      20.502439      0             -4.4361028      0              0              48.819345      48.819345      48.819345    
     80000   1.0007144      0.024574654    1.5010571      16.857161      20.502133      0             -4.4354445      0              0              48.819976      48.819976      48.819976    
     81000   0.9997059      0.0021643965   1.4995443      16.849378      20.496342      0             -4.4381433      0              0              48.820678      48.820678      48.820678    
     82000   0.99633722    -0.013963371    1.4944913      16.851812      20.50138       0             -4.4410795      0              0              48.821327      48.821327      48.821327    
     83000   0.99842465    -0.010310483    1.4976224      16.852199      20.498964      0             -4.4359839      0              0              48.821917      48.821917      48.821917    
     84000   0.99983624    -0.0079650532   1.4997398      16.855378      20.499693      0             -4.4370525      0              0              48.822515      48.822515      48.822515    
     85000   1.0012026      0.0051566778   1.5017893      16.855768      20.500592      0             -4.436781       0              0              48.823084      48.823084      48.823084    
     86000   1.000914      -0.00056631396  1.5013565      16.855108      20.499822      0             -4.4355089      0              0              48.823603      48.823603      48.823603    
     87000   1.0014275      0.054776831    1.5021266      16.852407      20.49584       0             -4.4343807      0              0              48.824139      48.824139      48.824139    
     88000   1.0009488     -0.044368885    1.5014087      16.851638      20.496632      0             -4.4384624      0              0              48.824711      48.824711      48.824711    
     89000   1.0008434      0.0029916708   1.5012505      16.851871      20.49732       0             -4.435919       0              0              48.825295      48.825295      48.825295    
     90000   0.99666656    -0.015760775    1.4949853      16.859257      20.505485      0             -4.4355474      0              0              48.825897      48.825897      48.825897    
     91000   1.0014202     -0.021608583    1.5021157      16.850149      20.500065      0             -4.4387462      0              0              48.826451      48.826451      48.826451    
     92000   0.99674525     0.0023898324   1.4951034      16.852799      20.501836      0             -4.4359771      0              0              48.826901      48.826901      48.826901    
     93000   0.99906074     0.0024058721   1.4985766      16.846723      20.496813      0             -4.4372373      0              0              48.82729       48.82729       48.82729     
     94000   0.99931145     0.015735377    1.4989526      16.846009      20.497783      0             -4.437664       0              0              48.827627      48.827627      48.827627    
     95000   1.0023709     -0.018964851    1.5035417      16.84869       20.497554      0             -4.437587       0              0              48.827847      48.827847      48.827847    
     96000   1.0025317      0.00088228236  1.5037829      16.853557      20.50183       0             -4.4371556      0              0              48.827926      48.827926      48.827926    
     97000   0.99746116     0.010390187    1.4961772      16.85908       20.502273      0             -4.4320877      0              0              48.827925      48.827925      48.827925    
     98000   0.99791986     0.018953152    1.4968653      16.850272      20.497112      0             -4.4372406      0              0              48.827845      48.827845      48.827845    
     99000   0.99931056    -0.060274372    1.4989513      16.845589      20.496733      0             -4.4413524      0              0              48.827677      48.827677      48.827677    
    100000   1.001001      -0.047885625    1.501487       16.848275      20.498027      0             -4.4363753      0              0              48.827436      48.827436      48.827436    
    101000   0.99938106     0.038133262    1.499057       16.852514      20.495559      0             -4.4314887      0              0              48.827179      48.827179      48.827179    
    102000   0.99906871    -0.022455124    1.4985885      16.853819      20.499589      0             -4.4338216      0              0              48.826947      48.826947      48.826947    
    103000   0.99763334    -0.019389666    1.4964355      16.85624       20.499817      0             -4.4340576      0              0              48.826711      48.826711      48.826711    
    104000   1.0016975     -0.011573263    1.5025316      16.852294      20.497907      0             -4.4364916      0              0              48.826472      48.826472      48.826472    
    105000   1.0038564      0.017608177    1.5057699      16.853316      20.498571      0             -4.4358981      0              0              48.826206      48.826206      48.826206    
    106000   1.0006858      0.022908385    1.5010142      16.857807      20.50028       0             -4.4325209      0              0              48.825947      48.825947      48.825947    
    107000   0.99713875     0.013101224    1.4956936      16.854881      20.498073      0             -4.4341212      0              0              48.825701      48.825701      48.825701    
    108000   0.9951912      0.0053047031   1.4927723      16.855169      20.501046      0             -4.4361737      0              0              48.825404      48.825404      48.825404    
    109000   0.9962243      0.017311234    1.494322       16.858149      20.504269      0             -4.4356043      0              0              48.825027      48.825027      48.825027    
    110000   1.0020054     -0.0012771632   1.5029935      16.857899      20.502993      0             -4.4338394      0              0              48.824605      48.824605      48.824605    
    111000   1.0033968      0.00085192945  1.5050806      16.854537      20.502543      0             -4.4374416      0              0              48.824152      48.824152      48.824152    
    112000   0.99932972    -0.0081150528   1.49898        16.856298      20.500055      0             -4.4351137      0              0              48.823711      48.823711      48.823711    
    113000   0.99879318     0.00088156238  1.4981752      16.851584      20.500266      0             -4.4382517      0              0              48.823293      48.823293      48.823293    
    114000   0.99809276    -0.0064053749   1.4971246      16.848886      20.499019      0             -4.4385432      0              0              48.822888      48.822888      48.822888    
    115000   0.99865523    -0.026587429    1.4979683      16.851224      20.501197      0             -4.4391677      0              0              48.822433      48.822433      48.822433    
    116000   1.0032963      0.024180464    1.5049298      16.854075      20.498818      0             -4.435472       0              0              48.821931      48.821931      48.821931    
    117000   1.0021724      0.05790923     1.503244       16.855197      20.500554      0             -4.4380132      0              0              48.82141       48.82141       48.82141     
    118000   1.0011126     -0.049924615    1.5016544      16.853384      20.500225      0             -4.440294       0              0              48.82097       48.82097       48.82097     
    119000   0.99634965    -0.015607923    1.49451        16.857136      20.498901      0             -4.4348541      0              0              48.820596      48.820596      48.820596    
    120000   0.99828839    -0.038654969    1.4974181      16.847441      20.495588      0             -4.4422145      0              0              48.820253      48.820253      48.820253    
    121000   0.99304967    -0.032841434    1.4895601      16.849641      20.500106      0             -4.4410692      0              0              48.819807      48.819807      48.819807    
    122000   0.99775807     0.0048919383   1.4966226      16.850404      20.497206      0             -4.4373882      0              0              48.819289      48.819289      48.819289    
    123000   1.0007133      0.047457159    1.5010554      16.852238      20.497809      0             -4.4370395      0              0              48.818734      48.818734      48.818734    
    124000   0.99930557     0.01868963     1.4989438      16.856011      20.499491      0             -4.4341963      0              0              48.818244      48.818244      48.818244    
    125000   1.0010794      0.052730072    1.5016046      16.851216      20.498357      0             -4.4391494      0              0              48.817821      48.817821      48.817821    
    126000   0.99874871     0.00074756204  1.4981085      16.847731      20.496068      0             -4.4382777      0              0              48.817519      48.817519      48.817519    
    127000   0.99921228     0.0015260906   1.4988039      16.843526      20.493975      0             -4.4401101      0              0              48.817225      48.817225      48.817225    
    128000   1.0004807      0.038472252    1.5007065      16.848843      20.497018      0             -4.4383591      0              0              48.816947      48.816947      48.816947    
    129000   1.0008898      0.053521996    1.5013202      16.856307      20.501753      0             -4.4349843      0              0              48.81669       48.81669       48.81669     
    130000   0.99824803     0.0032998727   1.4973575      16.856588      20.504128      0             -4.4357196      0              0              48.81651       48.81651       48.81651     
    131000   0.99987989    -0.016595051    1.4998053      16.847437      20.499218      0             -4.4411368      0              0              48.816373      48.816373      48.816373    
    132000   0.99923133    -0.010177657    1.4988325      16.845787      20.498666      0             -4.4406141      0              0              48.816237      48.816237      48.816237    
    133000   0.9993143     -6.9100982e-05  1.4989569      16.846276      20.498806      0             -4.4406172      0              0              48.816076      48.816076      48.816076    
    134000   1.0011566     -0.018937078    1.5017203      16.849419      20.500055      0             -4.4397468      0              0              48.815954      48.815954      48.815954    
    135000   1.0047399      0.032661783    1.5070953      16.852934      20.500938      0             -4.4367389      0              0              48.815916      48.815916      48.815916    
    136000   1.0034269      0.017069146    1.5051257      16.850709      20.499258      0             -4.4364583      0              0              48.816002      48.816002      48.816002    
    137000   1.0013827      0.016144343    1.5020595      16.847471      20.50093       0             -4.4404775      0              0              48.816228      48.816228      48.816228    
    138000   0.99957444     0.01180106     1.4993471      16.846684      20.499061      0             -4.4388144      0              0              48.816521      48.816521      48.816521    
    139000   1.0003889      0.012842525    1.5005689      16.845221      20.497797      0             -4.441111       0              0              48.816824      48.816824      48.816824    
    140000   1.0029204      0.014338684    1.5043661      16.844225      20.497721      0             -4.442088       0              0              48.817104      48.817104      48.817104    
    141000   1.0021319      0.03404866     1.5031833      16.853226      20.496567      0             -4.4318203      0              0              48.817386      48.817386      48.817386    
    142000   1.0066928      0.048483344    1.5100245      16.848544      20.499801      0             -4.4400717      0              0              48.817782      48.817782      48.817782    
    143000   0.99889407    -0.022166121    1.4983266      16.850651      20.499953      0             -4.4371697      0              0              48.818264      48.818264      48.818264    
    144000   0.99919571    -0.035650985    1.498779       16.845651      20.499534      0             -4.4422981      0              0              48.818777      48.818777      48.818777    
    145000   0.99807142     0.029555038    1.4970926      16.849483      20.496908      0             -4.4356308      0              0              48.819223      48.819223      48.819223    
    146000   0.99920735    -0.010768394    1.4987965      16.85306       20.498317      0             -4.4365412      0              0              48.819607      48.819607      48.819607    
    147000   1.0010574      0.0069940994   1.5015715      16.855291      20.501285      0             -4.4355825      0              0              48.81999       48.81999       48.81999     
    148000   1.0034542      0.019774306    1.5051667      16.851519      20.497285      0             -4.4358815      0              0              48.820445      48.820445      48.820445    
    149000   0.99996877     0.032994381    1.4999386      16.846324      20.496785      0             -4.4393785      0              0              48.82097       48.82097       48.82097     
    150000   0.99484277     0.05031445     1.4922497      16.851787      20.498044      0             -4.4365607      0              0              48.821517      48.821517      48.821517    
    151000   0.99896852    -0.039169593    1.4984382      16.852313      20.497022      0             -4.4342035      0              0              48.822073      48.822073      48.822073    
    152000   1.0029081      0.0135689      1.5043476      16.851631      20.497837      0             -4.4372776      0              0              48.822642      48.822642      48.822642    
    153000   1.0010593     -0.048344488    1.5015744      16.85446       20.502108      0             -4.4366576      0              0              48.823233      48.823233      48.823233    
    154000   0.9995057     -0.032079013    1.499244       16.853022      20.501001      0             -4.4370238      0              0              48.823847      48.823847      48.823847    
    155000   0.99841553    -0.064704972    1.4976088      16.847913      20.498497      0             -4.440144       0              0              48.824433      48.824433      48.824433    
    156000   0.99525923    -0.069264233    1.4928744      16.844854      20.497053      0             -4.4393901      0              0              48.82495       48.82495       48.82495     
    157000   0.99431821    -0.047564014    1.4914629      16.845147      20.498993      0             -4.4422449      0              0              48.825311      48.825311      48.825311    
    158000   0.99907472    -0.023397844    1.4985975      16.849729      20.499159      0             -4.4374542      0              0              48.825463      48.825463      48.825463    
    159000   1.0028279     -0.062474457    1.5042273      16.848316      20.496863      0             -4.4380928      0              0              48.825499      48.825499      48.825499    
    160000   1.0016592      0.0063505966   1.5024742      16.852618      20.49955       0             -4.4353521      0              0              48.825487      48.825487      48.825487    
    161000   1.001181       0.0023868572   1.501757       16.851565      20.497276      0             -4.4355627      0              0              48.825489      48.825489      48.825489    
    162000   0.99747327     0.018613027    1.4961954      16.849843      20.498922      0             -4.4374181      0              0              48.825485      48.825485      48.825485    
    163000   0.99750561     0.014425854    1.4962439      16.848364      20.497872      0             -4.4388643      0              0              48.825383      48.825383      48.825383    
    164000   1.0017493     -0.020590329    1.5026094      16.851426      20.500751      0             -4.4383433      0              0              48.825172      48.825172      48.825172    
    165000   1.0028662     -0.015897008    1.5042848      16.854331      20.502847      0             -4.4368562      0              0              48.824938      48.824938      48.824938    
    166000   1.000532       0.0059875329   1.5007834      16.853266      20.503468      0             -4.4381001      0              0              48.824661      48.824661      48.824661    
    167000   0.9973483     -0.0085157692   1.4960079      16.852142      20.497736      0             -4.4337629      0              0              48.824329      48.824329      48.824329    
    168000   0.9999048      0.021078602    1.4998427      16.8478        20.498748      0             -4.440236       0              0              48.823963      48.823963      48.823963    
    169000   1.0009505     -0.029769928    1.5014112      16.85099       20.4973        0             -4.4340173      0              0              48.823559      48.823559      48.823559    
    170000   1.0034452      0.017261547    1.5051532      16.85581       20.499686      0             -4.4303679      0              0              48.823186      48.823186      48.823186    
    171000   1.0094008     -0.0051344724   1.5140865      16.851629      20.502617      0             -4.4396844      0              0              48.822855      48.822855      48.822855    
    172000   1.0016679     -0.030629087    1.5024873      16.851292      20.499853      0             -4.4413495      0              0              48.822574      48.822574      48.822574    
    173000   1.000672      -0.015925694    1.5009934      16.848852      20.497035      0             -4.4394599      0              0              48.822311      48.822311      48.822311    
    174000   0.99972938    -0.045112765    1.4995795      16.850139      20.501312      0             -4.4419067      0              0              48.822053      48.822053      48.822053    
    175000   0.99782984     0.075102318    1.4967302      16.855043      20.500832      0             -4.4349637      0              0              48.821741      48.821741      48.821741    
    176000   1.0023204      0.0032871795   1.503466       16.852936      20.498498      0             -4.4342029      0              0              48.82146       48.82146       48.82146     
    177000   1.0070416     -0.05329793     1.5105477      16.849218      20.497191      0             -4.4374533      0              0              48.82118       48.82118       48.82118     
    178000   1.0021591     -0.019033578    1.5032241      16.848661      20.498207      0             -4.4384199      0              0              48.820877      48.820877      48.820877    
    179000   0.99959572    -0.020605978    1.499379       16.846719      20.498592      0             -4.440923       0              0              48.82055       48.82055       48.82055     
    180000   0.99921218     0.0064700573   1.4988037      16.847559      20.501008      0             -4.4404985      0              0              48.820111      48.820111      48.820111    
    181000   0.99894111    -0.014864123    1.4983971      16.852494      20.501109      0             -4.4351532      0              0              48.819669      48.819669      48.819669    
    182000   1.0014453      0.033076441    1.5021534      16.856803      20.500382      0             -4.4335799      0              0              48.819257      48.819257      48.819257    
    183000   1.0029596      0.015472956    1.5044248      16.852996      20.501199      0             -4.4364905      0              0              48.818882      48.818882      48.818882    
    184000   0.99895828    -0.012967668    1.4984229      16.846885      20.498732      0             -4.4401903      0              0              48.818501      48.818501      48.818501    
    185000   0.99797484    -0.0079479454   1.4969477      16.848205      20.499557      0             -4.4400134      0              0              48.818         48.818         48.818       
    186000   0.99823307     0.0063050239   1.4973351      16.85253       20.501991      0             -4.4380834      0              0              48.817419      48.817419      48.817419    
    187000   1.0017998     -0.027787592    1.5026851      16.852276      20.502836      0             -4.4393664      0              0              48.816887      48.816887      48.816887    
    188000   1.001389      -0.012342339    1.5020689      16.851467      20.500184      0             -4.4387776      0              0              48.816426      48.816426      48.816426    
    189000   0.99842691    -0.025735302    1.4976258      16.846387      20.498792      0             -4.4408964      0              0              48.816003      48.816003      48.816003    
    190000   0.99674361    -0.0015385154   1.4951009      16.846743      20.499848      0             -4.4408183      0              0              48.815519      48.815519      48.815519    
    191000   0.99903803     0.0011081786   1.4985425      16.847037      20.497575      0             -4.4402822      0              0              48.814984      48.814984      48.814984    
    192000   1.0028316      0.030307927    1.5042328      16.846584      20.500213      0             -4.4426986      0              0              48.814422      48.814422      48.814422    
    193000   0.99992132     0.051197448    1.4998674      16.851329      20.49896       0             -4.4375102      0              0              48.813856      48.813856      48.813856    
    194000   1.001681      -0.01048259     1.502507       16.847069      20.497754      0             -4.4419434      0              0              48.813356      48.813356      48.813356    
    195000   1.0016779      0.035256043    1.5025023      16.846917      20.494069      0             -4.4408928      0              0              48.812907      48.812907      48.812907    
    196000   1.0027817      0.012761134    1.504158       16.853045      20.498905      0             -4.4390561      0              0              48.812561      48.812561      48.812561    
    197000   1.0052664      0.04020951     1.507885       16.855819      20.502514      0             -4.4400542      0              0              48.812262      48.812262      48.812262    
    198000   1.0029536     -0.027232946    1.5044157      16.851945      20.496883      0             -4.4380388      0              0              48.812104      48.812104      48.812104    
    199000   0.99942695    -0.018562547    1.4991259      16.850466      20.50005       0             -4.4421127      0              0              48.812062      48.812062      48.812062    
    200000   0.99876611     0.019845653    1.4981346      16.848932      20.499292      0             -4.4411684      0              0              48.812082      48.812082      48.812082    
    201000   1.0001115      0.0032325892   1.5001527      16.8489        20.499056      0             -4.4411533      0              0              48.812176      48.812176      48.812176    
    202000   1.0056789      0.039839776    1.5085037      16.847731      20.498116      0             -4.4402311      0              0              48.812369      48.812369      48.812369    
    203000   1.0036057      0.022178804    1.505394       16.853835      20.500929      0             -4.4379187      0              0              48.812712      48.812712      48.812712    
    204000   0.99628609     0.033675504    1.4944146      16.854664      20.501254      0             -4.4389011      0              0              48.813164      48.813164      48.813164    
    205000   0.99778866     0.016821963    1.4966685      16.849912      20.496844      0             -4.4392346      0              0              48.813698      48.813698      48.813698    
    206000   1.0017806      0.012779479    1.5026563      16.846806      20.496179      0             -4.4392664      0              0              48.814275      48.814275      48.814275    
    207000   1.0024133      0.021459182    1.5036054      16.848368      20.497194      0             -4.4381454      0              0              48.814888      48.814888      48.814888    
    208000   1.0009497      0.026425805    1.50141        16.852096      20.499055      0             -4.4369045      0              0              48.81556       48.81556       48.81556     
    209000   1.0001241      0.055628312    1.5001716      16.851425      20.498674      0             -4.4375343      0              0              48.816357      48.816357      48.816357    
    210000   0.99559715     0.004328254    1.4933812      16.85158       20.50084       0             -4.4383166      0              0              48.817282      48.817282      48.817282    
    211000   0.99826418    -0.015946853    1.4973817      16.845544      20.497688      0             -4.4398262      0              0              48.818291      48.818291      48.818291    
    212000   0.99940395     0.0855272      1.4990914      16.847834      20.497762      0             -4.4358015      0              0              48.819275      48.819275      48.819275    
    213000   0.99999375     0.031904179    1.4999761      16.855999      20.502522      0             -4.4332286      0              0              48.820251      48.820251      48.820251    
    214000   1.0021017     -0.016937925    1.503138       16.852252      20.499572      0             -4.4360584      0              0              48.821241      48.821241      48.821241    
    215000   1.0029586     -0.0024296511   1.5044233      16.845866      20.497548      0             -4.4394232      0              0              48.82225       48.82225       48.82225     
    216000   0.99894583    -0.079730096    1.4984042      16.850342      20.501257      0             -4.4391523      0              0              48.823321      48.823321      48.823321    
    217000   0.99952973    -0.04860931     1.4992801      16.848983      20.498184      0             -4.4369713      0              0              48.824337      48.824337      48.824337    
    218000   0.99938022     0.013814253    1.4990558      16.851795      20.499282      0             -4.4345262      0              0              48.825298      48.825298      48.825298    
    219000   0.99918021     0.050357864    1.4987558      16.860482      20.505048      0             -4.431996       0              0              48.826206      48.826206      48.826206    
    220000   1.0052196     -0.092553427    1.5078147      16.85243       20.50135       0             -4.4358208      0              0              48.827121      48.827121      48.827121    
    221000   0.99939417    -0.053677372    1.4990767      16.851881      20.502433      0             -4.4387618      0              0              48.827906      48.827906      48.827906    
    222000   1.0010391      0.00044623103  1.501544       16.847712      20.497561      0             -4.4373608      0              0              48.828581      48.828581      48.828581    
    223000   1.0015928     -0.040321351    1.5023746      16.84811       20.497691      0             -4.4371707      0              0              48.829207      48.829207      48.829207    
    224000   1.0018042      0.017942959    1.5026917      16.850247      20.499357      0             -4.4354222      0              0              48.829774      48.829774      48.829774    
    225000   1.0036796      0.010569412    1.5055049      16.852269      20.500588      0             -4.4347137      0              0              48.830342      48.830342      48.830342    
    226000   1.0036915      0.016528187    1.5055226      16.852867      20.501923      0             -4.4351813      0              0              48.830918      48.830918      48.830918    
    227000   0.9997931     -0.025811975    1.4996751      16.849472      20.498341      0             -4.432347       0              0              48.831514      48.831514      48.831514    
    228000   1.0005113     -0.038431238    1.5007525      16.843766      20.494917      0             -4.435973       0              0              48.832068      48.832068      48.832068    
    229000   0.99826364    -0.045526171    1.4973809      16.848633      20.499766      0             -4.4347663      0              0              48.832469      48.832469      48.832469    
    230000   0.99848723    -0.043850793    1.4977163      16.853781      20.4996        0             -4.4306788      0              0              48.832714      48.832714      48.832714    
    231000   1.0020882      0.018593026    1.5031177      16.855102      20.504685      0             -4.433575       0              0              48.832842      48.832842      48.832842    
    232000   1.0064692      0.0053324563   1.5096891      16.854433      20.501787      0             -4.4336088      0              0              48.832962      48.832962      48.832962    
    233000   1.0033778      0.049851978    1.5050521      16.853883      20.49674       0             -4.4299131      0              0              48.833142      48.833142      48.833142    
    234000   1.0010109     -0.0033805708   1.5015018      16.848699      20.496629      0             -4.433865       0              0              48.833385      48.833385      48.833385    
    235000   0.99841879    -0.0036303623   1.4976137      16.850018      20.497841      0             -4.4343722      0              0              48.833524      48.833524      48.833524    
    236000   0.99985901    -0.062731473    1.499774       16.850678      20.499133      0             -4.4349433      0              0              48.833603      48.833603      48.833603    
    237000   0.99792985     0.046260535    1.4968803      16.86011       20.502954      0             -4.4280681      0              0              48.833578      48.833578      48.833578    
    238000   1.0050826      0.0037568614   1.5076093      16.852495      20.501175      0             -4.4353838      0              0              48.833566      48.833566      48.833566    
    239000   1.0003576     -0.043839916    1.5005219      16.850708      20.499198      0             -4.4335759      0              0              48.833489      48.833489      48.833489    
    240000   0.99746852    -0.011757054    1.4961883      16.849006      20.499179      0             -4.4351923      0              0              48.833281      48.833281      48.833281    
    241000   1.0011023     -0.020256599    1.5016388      16.84591       20.497568      0             -4.4362864      0              0              48.832942      48.832942      48.832942    
    242000   1.0030388      0.0049551847   1.5045437      16.848525      20.500787      0             -4.4369343      0              0              48.832441      48.832441      48.832441    
    243000   1.0033287     -0.020832035    1.5049785      16.851441      20.501377      0             -4.4335955      0              0              48.831899      48.831899      48.831899    
    244000   0.9993498     -0.00063429274  1.4990102      16.848957      20.498561      0             -4.4342341      0              0              48.831319      48.831319      48.831319    
    245000   0.99711842    -0.019959923    1.4956631      16.846721      20.497189      0             -4.4357957      0              0              48.830634      48.830634      48.830634    
    246000   0.99747619    -0.02780912     1.4961998      16.849899      20.496128      0             -4.4317487      0              0              48.82981       48.82981       48.82981     
    247000   0.99977238     0.035091866    1.499644       16.853276      20.499834      0             -4.432778       0              0              48.828902      48.828902      48.828902    
    248000   1.0053131     -0.024605547    1.507955       16.846289      20.496248      0             -4.4346382      0              0              48.827985      48.827985      48.827985    
    249000   1.0000383     -0.03794234     1.500043       16.851376      20.500513      0             -4.4352308      0              0              48.827089      48.827089      48.827089    
    250000   0.9964134      0.033375252    1.4946056      16.854254      20.500647      0             -4.432352       0              0              48.826124      48.826124      48.826124    
    251000   1.0033291     -0.02450457     1.5049791      16.84299       20.497444      0             -4.4410389      0              0              48.825071      48.825071      48.825071    
    252000   0.99963158     0.017135147    1.4994328      16.848023      20.49623       0             -4.4364061      0              0              48.823899      48.823899      48.823899    
    253000   0.99727177    -0.02747162     1.4958931      16.853622      20.499505      0             -4.4345433      0              0              48.822716      48.822716      48.822716    
    254000   1.0029761      0.0074262662   1.5044495      16.84602       20.49855       0             -4.4400214      0              0              48.82151       48.82151       48.82151     
    255000   1.0021101     -0.019122189    1.5031506      16.847412      20.498052      0             -4.4385892      0              0              48.820324      48.820324      48.820324    
    256000   0.99754556     0.032629939    1.4963038      16.850591      20.501204      0             -4.4379352      0              0              48.819168      48.819168      48.819168    
    257000   0.99377294    -0.0049571011   1.490645       16.846504      20.498354      0             -4.4401719      0              0              48.81792       48.81792       48.81792     
    258000   0.99631272    -0.00062572475  1.4944546      16.843731      20.4978        0             -4.4401916      0              0              48.816548      48.816548      48.816548    
    259000   0.99782257     0.0034684645   1.4967193      16.846998      20.500114      0             -4.4404426      0              0              48.815096      48.815096      48.815096    
    260000   1.0007935     -0.014429461    1.5011758      16.845348      20.50074       0             -4.4421422      0              0              48.813628      48.813628      48.813628    
    261000   0.99710631     0.040222676    1.495645       16.852656      20.501215      0             -4.4366318      0              0              48.812216      48.812216      48.812216    
    262000   0.99986101    -0.015435327    1.499777       16.845691      20.497122      0             -4.4379639      0              0              48.810903      48.810903      48.810903    
    263000   0.99676546     0.0026136011   1.4951337      16.841204      20.49588       0             -4.4411585      0              0              48.809662      48.809662      48.809662    
    264000   0.99658501     0.02464212     1.494863       16.841839      20.49566       0             -4.4398848      0              0              48.808404      48.808404      48.808404    
    265000   0.99973607     0.0088790254   1.4995896      16.842524      20.498153      0             -4.4418679      0              0              48.807164      48.807164      48.807164    
    266000   1.0014549      0.017030739    1.5021677      16.842846      20.499769      0             -4.4435888      0              0              48.805978      48.805978      48.805978    
    267000   0.99807246     0.01682612     1.4970942      16.848938      20.501757      0             -4.4405148      0              0              48.80482       48.80482       48.80482     
    268000   1.0009568      0.027337452    1.5014206      16.84429       20.501725      0             -4.4443224      0              0              48.803718      48.803718      48.803718    
    269000   0.99859144     0.013717193    1.4978726      16.840534      20.499893      0             -4.4438248      0              0              48.802681      48.802681      48.802681    
    270000   0.9954191      0.012212007    1.4931142      16.838335      20.499956      0             -4.445356       0              0              48.801686      48.801686      48.801686    
    271000   0.99657717     0.036517757    1.4948513      16.839428      20.497886      0             -4.4445809      0              0              48.800755      48.800755      48.800755    
    272000   1.0025724      0.050215425    1.503844       16.836961      20.495673      0             -4.4440531      0              0              48.799884      48.799884      48.799884    
    273000   1.0004278      0.060084621    1.5006271      16.840735      20.498259      0             -4.4414149      0              0              48.799118      48.799118      48.799118    
    274000   1.0025111      0.03982712     1.5037521      16.835413      20.495921      0             -4.4443379      0              0              48.798491      48.798491      48.798491    
    275000   0.99549528     0.036372667    1.4932284      16.84191       20.499049      0             -4.4424069      0              0              48.797959      48.797959      48.797959    
    276000   0.99633936     0.012352275    1.4944945      16.835187      20.496808      0             -4.4458528      0              0              48.797514      48.797514      48.797514    
    277000   0.99493809     0.04309245     1.4923927      16.834336      20.49648       0             -4.4463498      0              0              48.797151      48.797151      48.797151    
    278000   0.9974772      0.055261742    1.4962013      16.839662      20.500031      0             -4.4448069      0              0              48.796843      48.796843      48.796843    
    279000   1.0010253      0.013034973    1.5015234      16.839907      20.498403      0             -4.4440161      0              0              48.796641      48.796641      48.796641    
    280000   1.0015223      0.021118681    1.5022688      16.840014      20.499164      0             -4.4457448      0              0              48.796615      48.796615      48.796615    
    281000   1.0012667      0.046070274    1.5018855      16.838184      20.49729       0             -4.4454497      0              0              48.796726      48.796726      48.796726    
    282000   0.99841535    -0.020205386    1.4976085      16.835131      20.501222      0             -4.451426       0              0              48.796924      48.796924      48.796924    
    283000   0.99544394    -0.003351994    1.4931514      16.836892      20.499803      0             -4.4470586      0              0              48.797118      48.797118      48.797118    
    284000   1.0017026     -0.017027475    1.5025393      16.837682      20.496566      0             -4.4442778      0              0              48.797316      48.797316      48.797316    
    285000   1.000955      -0.014345181    1.5014179      16.841608      20.500365      0             -4.4453122      0              0              48.797632      48.797632      48.797632    
    286000   0.9960027      0.046364174    1.4939896      16.845499      20.501951      0             -4.4437224      0              0              48.798011      48.798011      48.798011    
    287000   0.99826319    -0.020604476    1.4973803      16.839573      20.497528      0             -4.4448159      0              0              48.798511      48.798511      48.798511    
    288000   0.99923811     0.024423184    1.4988426      16.842155      20.497724      0             -4.44412        0              0              48.799101      48.799101      48.799101    
    289000   1.0018647      0.022335466    1.5027824      16.847107      20.50183       0             -4.4436005      0              0              48.799808      48.799808      48.799808    
    290000   1.0005531      0.00532125     1.5008151      16.848098      20.50484       0             -4.4447255      0              0              48.800663      48.800663      48.800663    
    291000   1.0001652      0.0079031017   1.5002332      16.843305      20.499958      0             -4.44492        0              0              48.801608      48.801608      48.801608    
    292000   0.99958494    -0.0031539946   1.4993629      16.842085      20.495667      0             -4.4405227      0              0              48.802653      48.802653      48.802653    
    293000   1.0019573      0.064382513    1.5029213      16.839421      20.495357      0             -4.4417971      0              0              48.803803      48.803803      48.803803    
    294000   1.002482      -0.033311672    1.5037085      16.839291      20.497902      0             -4.4452208      0              0              48.805074      48.805074      48.805074    
    295000   1.0000228      0.021829402    1.5000197      16.844366      20.499361      0             -4.4420489      0              0              48.806426      48.806426      48.806426    
    296000   1.0023351      0.055091026    1.503488       16.843694      20.496567      0             -4.4402286      0              0              48.807868      48.807868      48.807868    
    297000   1.003104       0.04095        1.5046414      16.850207      20.498521      0             -4.4371182      0              0              48.809461      48.809461      48.809461    
    298000   1.0061925      0.033378833    1.5092741      16.844752      20.498689      0             -4.4405757      0              0              48.811202      48.811202      48.811202    
    299000   0.99889385     0.036743419    1.4983262      16.846646      20.500988      0             -4.439443       0              0              48.813069      48.813069      48.813069    
    300000   0.99772401    -0.038689561    1.4965715      16.845651      20.49899       0             -4.437991       0              0              48.814933      48.814933      48.814933    
    301000   0.99626639     0.0030343187   1.4943851      16.849045      20.501439      0             -4.4379459      0              0              48.816786      48.816786      48.816786    
    302000   1.0017037      0.026427688    1.502541       16.847075      20.501445      0             -4.4396538      0              0              48.818623      48.818623      48.818623    
    303000   1.0020614      0.038014497    1.5030775      16.853996      20.500449      0             -4.4339531      0              0              48.820496      48.820496      48.820496    
    304000   1.0036207     -0.019202659    1.5054165      16.850067      20.500566      0             -4.4361617      0              0              48.822491      48.822491      48.822491    
    305000   1.0040054     -0.016108881    1.5059935      16.845803      20.502629      0             -4.4422472      0              0              48.824524      48.824524      48.824524    
    306000   0.99958887     0.0090743052   1.4993688      16.849101      20.500327      0             -4.4377844      0              0              48.826489      48.826489      48.826489    
    307000   0.99802105    -0.067195883    1.4970171      16.849454      20.499752      0             -4.436241       0              0              48.828387      48.828387      48.828387    
    308000   0.99603958    -0.038766844    1.4940449      16.8514        20.499146      0             -4.4339593      0              0              48.830182      48.830182      48.830182    
    309000   0.99764275    -0.044250488    1.4964496      16.853579      20.50038       0             -4.4330853      0              0              48.831857      48.831857      48.831857    
    310000   0.99789572     0.027208928    1.4968291      16.860838      20.502685      0             -4.4304264      0              0              48.833434      48.833434      48.833434    
    311000   1.0037413     -0.049370914    1.5055974      16.854263      20.501465      0             -4.4363911      0              0              48.835023      48.835023      48.835023    
    312000   1.0001966     -0.018082497    1.5002804      16.854075      20.498632      0             -4.4330355      0              0              48.836586      48.836586      48.836586    
    313000   0.99949057     0.007829607    1.4992213      16.848622      20.498573      0             -4.4383002      0              0              48.838052      48.838052      48.838052    
    314000   0.99735337    -0.054745223    1.4960155      16.853156      20.497477      0             -4.4323693      0              0              48.839366      48.839366      48.839366    
    315000   0.99810448     0.011323529    1.4971422      16.854299      20.49818       0             -4.4308979      0              0              48.840546      48.840546      48.840546    
    316000   0.99974863    -0.039683832    1.4996084      16.854108      20.498728      0             -4.431051       0              0              48.841682      48.841682      48.841682    
    317000   0.99988478    -0.042125577    1.4998126      16.856926      20.501566      0             -4.4325836      0              0              48.842705      48.842705      48.842705    
    318000   1.0023504      0.0018512969   1.5035111      16.856082      20.498782      0             -4.4286134      0              0              48.843588      48.843588      48.843588    
    319000   1.0012789     -0.045554163    1.5019039      16.85579       20.500195      0             -4.4326514      0              0              48.844346      48.844346      48.844346    
    320000   1.001132      -0.072681902    1.5016834      16.849091      20.498654      0             -4.4360726      0              0              48.844982      48.844982      48.844982    
    321000   0.99728404    -0.043840753    1.4959115      16.851405      20.497899      0             -4.4310482      0              0              48.845414      48.845414      48.845414    
    322000   1.0007767     -0.033956014    1.5011505      16.850769      20.499041      0             -4.4325488      0              0              48.84565       48.84565       48.84565     
    323000   1.0042687     -0.087788784    1.5063885      16.854734      20.501884      0             -4.4320642      0              0              48.845739      48.845739      48.845739    
    324000   1.0014646     -0.057500897    1.5021824      16.858093      20.499931      0             -4.428337       0              0              48.845702      48.845702      48.845702    
    325000   1.0001361     -0.063848579    1.5001896      16.85565       20.499362      0             -4.4304405      0              0              48.845574      48.845574      48.845574    
    326000   0.99880892    -0.028408781    1.4981988      16.853203      20.499063      0             -4.4316365      0              0              48.845222      48.845222      48.845222    
    327000   0.99992669    -0.022838       1.4998755      16.851507      20.499627      0             -4.4334168      0              0              48.844679      48.844679      48.844679    
    328000   0.99926591     0.015507452    1.4988843      16.857571      20.500131      0             -4.4276164      0              0              48.843962      48.843962      48.843962    
    329000   1.0023989     -0.03272719     1.5035838      16.860454      20.502775      0             -4.4290858      0              0              48.843137      48.843137      48.843137    
    330000   1.0026338     -0.0045679063   1.5039361      16.855027      20.50225       0             -4.4333898      0              0              48.842232      48.842232      48.842232    
    331000   1.0033958     -0.08440405     1.5050791      16.846574      20.496318      0             -4.4348512      0              0              48.841228      48.841228      48.841228    
    332000   1.0017364      0.013567477    1.5025901      16.846419      20.492157      0             -4.431174       0              0              48.840024      48.840024      48.840024    
    333000   0.99475043    -0.0059031907   1.4921112      16.858932      20.501431      0             -4.4300073      0              0              48.838708      48.838708      48.838708    
    334000   1.0052537     -0.049826187    1.5078659      16.851774      20.49665       0             -4.4330192      0              0              48.837266      48.837266      48.837266    
    335000   1.0054044      0.048781546    1.508092       16.853514      20.500026      0             -4.4314796      0              0              48.835747      48.835747      48.835747    
    336000   1.0008299      0.053314595    1.5012303      16.852764      20.500313      0             -4.431276       0              0              48.834254      48.834254      48.834254    
    337000   1.001761      -0.02375516     1.5026269      16.848481      20.501528      0             -4.4366449      0              0              48.832732      48.832732      48.832732    
    338000   0.99908146     0.0018246387   1.4986077      16.847644      20.496458      0             -4.4325708      0              0              48.831107      48.831107      48.831107    
    339000   0.99812555    -0.051356977    1.4971738      16.844821      20.501089      0             -4.4403622      0              0              48.829429      48.829429      48.829429    
    340000   0.99779624    -0.00055995221  1.4966798      16.84648       20.497491      0             -4.4342043      0              0              48.827592      48.827592      48.827592    
    341000   1.0005623      0.001073924    1.5008289      16.85083       20.500558      0             -4.4336952      0              0              48.825694      48.825694      48.825694    
    342000   1.0048889     -0.010453325    1.5073187      16.847376      20.500875      0             -4.4389298      0              0              48.823795      48.823795      48.823795    
    343000   1.0026526      0.011348773    1.5039643      16.847261      20.496918      0             -4.4364763      0              0              48.821909      48.821909      48.821909    
    344000   1.0005539     -0.0061459573   1.5008162      16.847474      20.499824      0             -4.4378188      0              0              48.820063      48.820063      48.820063    
    345000   0.9982575      0.013656447    1.4973717      16.849205      20.500252      0             -4.4368784      0              0              48.81817       48.81817       48.81817     
    346000   0.99901187     0.063853823    1.4985033      16.847553      20.499367      0             -4.4376381      0              0              48.81624       48.81624       48.81624     
    347000   0.9993834      0.020294557    1.4990606      16.847114      20.500165      0             -4.4387975      0              0              48.814341      48.814341      48.814341    
    348000   1.0013762     -0.010781435    1.5020497      16.849902      20.502936      0             -4.4392491      0              0              48.812534      48.812534      48.812534    
    349000   1.0030047      0.039436433    1.5044925      16.850568      20.500259      0             -4.4369943      0              0              48.81083       48.81083       48.81083     
    350000   1.0027101      0.0026343954   1.5040505      16.843893      20.497132      0             -4.4403916      0              0              48.809202      48.809202      48.809202    
    351000   0.99548307     0.044048202    1.4932101      16.849135      20.502032      0             -4.4406827      0              0              48.807711      48.807711      48.807711    
    352000   1.0018099     -0.018089404    1.5027003      16.8403        20.498891      0             -4.44491        0              0              48.806321      48.806321      48.806321    
    353000   1.0003191      0.019140826    1.5004641      16.845042      20.502339      0             -4.4429736      0              0              48.805003      48.805003      48.805003    
    354000   1.003964       0.044400093    1.5059314      16.844547      20.503435      0             -4.4469852      0              0              48.803727      48.803727      48.803727    
    355000   1.0080204      0.036913274    1.5120159      16.841962      20.500383      0             -4.445882       0              0              48.80253       48.80253       48.80253     
    356000   0.99815253     0.0087742305   1.4972143      16.847633      20.502907      0             -4.4436596      0              0              48.801428      48.801428      48.801428    
    357000   1.0027339      0.0011390957   1.5040862      16.836373      20.494765      0             -4.4452747      0              0              48.800409      48.800409      48.800409    
    358000   0.99872037     0.01727486     1.498066       16.842302      20.497798      0             -4.4446457      0              0              48.799443      48.799443      48.799443    
    359000   0.99905115     0.07910279     1.4985622      16.847454      20.501384      0             -4.4425215      0              0              48.798543      48.798543      48.798543    
    360000   1.0075554      0.014315556    1.5113184      16.841812      20.499383      0             -4.4463197      0              0              48.797767      48.797767      48.797767    
    361000   1.0039319      0.036090632    1.5058832      16.84273       20.500141      0             -4.4437889      0              0              48.797181      48.797181      48.797181    
    362000   1.0019984      0.0083578552   1.502983       16.841031      20.500212      0             -4.4459033      0              0              48.796776      48.796776      48.796776    
    363000   0.99782257    -0.003730896    1.4967193      16.843477      20.498339      0             -4.4424381      0              0              48.796504      48.796504      48.796504    
    364000   0.9976275      0.028957213    1.4964267      16.840075      20.500513      0             -4.447415       0              0              48.796368      48.796368      48.796368    
    365000   0.99862109    -0.0037125433   1.4979171      16.837878      20.496745      0             -4.444273       0              0              48.796326      48.796326      48.796326    
    366000   0.99905258     0.048538997    1.4985643      16.842846      20.502212      0             -4.4452461      0              0              48.796375      48.796375      48.796375    
    367000   1.0044238      0.038596166    1.506621       16.841424      20.498827      0             -4.4450227      0              0              48.796525      48.796525      48.796525    
    368000   1.0010509      0.023963781    1.5015618      16.844649      20.501037      0             -4.4434395      0              0              48.796828      48.796828      48.796828    
    369000   0.99755971     0.021156881    1.4963251      16.840796      20.498184      0             -4.444748       0              0              48.797259      48.797259      48.797259    
    370000   0.99700997     0.002748265    1.4955005      16.840803      20.498203      0             -4.4443136      0              0              48.797778      48.797778      48.797778    
    371000   0.9986656      0.014565686    1.4979839      16.840963      20.500492      0             -4.444219       0              0              48.798308      48.798308      48.798308    
    372000   0.99996704     0.019487203    1.499936       16.840951      20.501906      0             -4.4466587      0              0              48.798924      48.798924      48.798924    
    373000   0.99780319     0.032874       1.4966903      16.847458      20.501334      0             -4.4400071      0              0              48.799627      48.799627      48.799627    
    374000   1.0030785      0.056547681    1.5046032      16.847163      20.503311      0             -4.4413728      0              0              48.800425      48.800425      48.800425    
    375000   1.0034308     -0.020283986    1.5051316      16.845051      20.501043      0             -4.4430414      0              0              48.801415      48.801415      48.801415    
    376000   1.0007644      0.010941871    1.5011321      16.839652      20.497496      0             -4.4421166      0              0              48.802558      48.802558      48.802558    
    377000   0.99789762     0.042555976    1.4968319      16.841777      20.499887      0             -4.4431327      0              0              48.803808      48.803808      48.803808    
    378000   0.99929456     0.057091908    1.4989273      16.841914      20.496288      0             -4.4416203      0              0              48.805127      48.805127      48.805127    
    379000   0.99972914     0.042500155    1.4995792      16.846701      20.502619      0             -4.4433003      0              0              48.80654       48.80654       48.80654     
    380000   1.0028275      0.046857045    1.5042267      16.849365      20.499729      0             -4.4383762      0              0              48.808109      48.808109      48.808109    
    381000   1.0048264      0.071187042    1.507225       16.849534      20.501553      0             -4.4396228      0              0              48.809827      48.809827      48.809827    
    382000   1.0021737      0.026491517    1.5032459      16.843242      20.497637      0             -4.4405526      0              0              48.811713      48.811713      48.811713    
    383000   0.9976647      0.045125142    1.4964825      16.844193      20.496515      0             -4.4381245      0              0              48.813679      48.813679      48.813679    
    384000   0.99783185    -0.0076027453   1.4967333      16.845586      20.497895      0             -4.4411228      0              0              48.815686      48.815686      48.815686    
    385000   1.0013468      0.047072353    1.5020056      16.848495      20.496535      0             -4.4368577      0              0              48.817684      48.817684      48.817684    
    386000   1.0007905      0.0007535186   1.5011712      16.853379      20.5014        0             -4.4386465      0              0              48.819757      48.819757      48.819757    
    387000   0.99991162    -0.0026619871   1.4998529      16.855667      20.503612      0             -4.4359167      0              0              48.821889      48.821889      48.821889    
    388000   0.9994534      8.8367061e-05  1.4991656      16.850989      20.500391      0             -4.4365724      0              0              48.824033      48.824033      48.824033    
    389000   0.99526915     0.018420492    1.4928892      16.847794      20.49966       0             -4.4376308      0              0              48.826152      48.826152      48.826152    
    390000   0.99867805    -0.041274207    1.4980025      16.84431       20.498404      0             -4.4395864      0              0              48.82812       48.82812       48.82812     
    391000   1.0014491      0.019877155    1.502159       16.845355      20.50018       0             -4.4397981      0              0              48.829915      48.829915      48.829915    
    392000   0.99971172    -0.0057231918   1.499553       16.851678      20.500559      0             -4.4332599      0              0              48.831581      48.831581      48.831581    
    393000   1.000373      -0.026483766    1.5005449      16.853412      20.502933      0             -4.4365471      0              0              48.833144      48.833144      48.833144    
    394000   1.0053443     -0.0032951292   1.5080018      16.852799      20.501192      0             -4.4346198      0              0              48.834565      48.834565      48.834565    
    395000   1.0034613     -0.00843175     1.5051773      16.860035      20.50481       0             -4.4313029      0              0              48.835866      48.835866      48.835866    
    396000   1.0007102     -0.062252324    1.5010508      16.854655      20.502563      0             -4.4343931      0              0              48.837112      48.837112      48.837112    
    397000   0.99912937     0.020781751    1.4986795      16.852596      20.49658       0             -4.4311014      0              0              48.838229      48.838229      48.838229    
    398000   0.99889512    -0.017148699    1.4983281      16.85362       20.502449      0             -4.4328131      0              0              48.839258      48.839258      48.839258    
    399000   1.000522      -0.033990477    1.5007684      16.852864      20.500752      0             -4.4318719      0              0              48.840216      48.840216      48.840216    
    400000   0.99896015    -0.01812348     1.4984257      16.857695      20.500543      0             -4.429014       0              0              48.841071      48.841071      48.841071    
    401000   1.0032074      0.016699873    1.5047965      16.854063      20.498638      0             -4.4297812      0              0              48.841799      48.841799      48.841799    
    402000   1.0030148     -0.070192146    1.5045075      16.850987      20.498881      0             -4.4315563      0              0              48.842418      48.842418      48.842418    
    403000   0.99884083    -0.022450735    1.4982467      16.848702      20.498649      0             -4.4329753      0              0              48.84294       48.84294       48.84294     
    404000   0.99889683    -0.026713476    1.4983307      16.849892      20.501798      0             -4.4354958      0              0              48.843264      48.843264      48.843264    
    405000   1.0017968      0.005555699    1.5026806      16.851799      20.497342      0             -4.42971        0              0              48.84336       48.84336       48.84336     
    406000   1.0015966     -0.022219281    1.5023803      16.85445       20.500581      0             -4.4317047      0              0              48.843283      48.843283      48.843283    
    407000   0.99717965     0.01714269     1.495755       16.860218      20.498901      0             -4.427083       0              0              48.843048      48.843048      48.843048    
    408000   0.9967814      0.025653305    1.4951576      16.861563      20.500282      0             -4.4256535      0              0              48.842733      48.842733      48.842733    
    409000   1.0004433     -0.080303357    1.5006503      16.85654       20.501137      0             -4.4337221      0              0              48.842325      48.842325      48.842325    
    410000   0.99858221    -0.018506501    1.4978588      16.859061      20.504073      0             -4.4322954      0              0              48.841777      48.841777      48.841777    
    411000   0.99555098    -0.059607369    1.493312       16.856758      20.499893      0             -4.4295971      0              0              48.841081      48.841081      48.841081    
    412000   0.99966438    -0.080698541    1.499482       16.845158      20.496057      0             -4.4351522      0              0              48.84026       48.84026       48.84026     
    413000   0.99621339     0.0050755694   1.4943056      16.852508      20.500005      0             -4.4316127      0              0              48.839248      48.839248      48.839248    
    414000   1.0017951     -0.029439409    1.5026781      16.852038      20.499578      0             -4.4314885      0              0              48.838062      48.838062      48.838062    
    415000   1.0011702     -0.031740192    1.5017408      16.854163      20.49896       0             -4.430505       0              0              48.836779      48.836779      48.836779    
    416000   0.9986367     -0.0029415301   1.4979405      16.8548        20.500145      0             -4.4307701      0              0              48.835437      48.835437      48.835437    
    417000   1.0028527      0.002975068    1.5042644      16.846389      20.497066      0             -4.43617        0              0              48.834063      48.834063      48.834063    
    418000   0.99984543    -0.022142174    1.4997536      16.850639      20.501223      0             -4.4359575      0              0              48.832599      48.832599      48.832599    
    419000   1.0016922     -0.023256427    1.5025238      16.848033      20.496998      0             -4.4345786      0              0              48.83102       48.83102       48.83102     
    420000   1.0009898     -0.02097787     1.5014701      16.848643      20.499691      0             -4.4372954      0              0              48.829356      48.829356      48.829356    
    421000   1.0006321      0.018152418    1.5009336      16.848475      20.497681      0             -4.4364285      0              0              48.827568      48.827568      48.827568    
    422000   1.0014412     -0.013578655    1.5021472      16.847361      20.496595      0             -4.436043       0              0              48.825712      48.825712      48.825712    
    423000   1.0013081      0.02316246     1.5019476      16.849031      20.500171      0             -4.4384143      0              0              48.823793      48.823793      48.823793    
    424000   1.0033468      0.015942066    1.5050056      16.847433      20.495477      0             -4.4346354      0              0              48.821871      48.821871      48.821871    
    425000   1.0014246      0.034166116    1.5021223      16.847062      20.498329      0             -4.4375912      0              0              48.819978      48.819978      48.819978    
    426000   0.99705495    -0.016069738    1.4955679      16.844987      20.500744      0             -4.4406364      0              0              48.818088      48.818088      48.818088    
    427000   0.99869336    -0.0085831963   1.4980255      16.842182      20.498148      0             -4.442991       0              0              48.816101      48.816101      48.816101    
    428000   0.99613318     0.029655206    1.4941853      16.851683      20.501384      0             -4.4353881      0              0              48.814039      48.814039      48.814039    
    429000   1.0005715      0.017060468    1.5008427      16.846663      20.501042      0             -4.4398257      0              0              48.812066      48.812066      48.812066    
    430000   0.99927862     0.035675843    1.4989034      16.846123      20.50074       0             -4.4404273      0              0              48.810196      48.810196      48.810196    
    431000   0.99532124     0.013892454    1.4929674      16.850044      20.502026      0             -4.4392625      0              0              48.808442      48.808442      48.808442    
    432000   1.001008      -0.00043116013  1.5014974      16.843264      20.497533      0             -4.4408987      0              0              48.806751      48.806751      48.806751    
    433000   1.0047078      0.081653046    1.5070471      16.846933      20.498878      0             -4.4376985      0              0              48.805131      48.805131      48.805131    
    434000   1.0049527      0.046271212    1.5074145      16.845348      20.501669      0             -4.4425544      0              0              48.803704      48.803704      48.803704    
    435000   0.99903134     0.027070128    1.4985325      16.845451      20.498499      0             -4.4418172      0              0              48.802445      48.802445      48.802445    
    436000   0.99706231     0.03095521     1.495579       16.846209      20.500962      0             -4.4425131      0              0              48.801357      48.801357      48.801357    
    437000   0.99995751     0.0054561242   1.4999217      16.841991      20.500613      0             -4.4462187      0              0              48.800395      48.800395      48.800395    
    438000   1.0011202     -0.011255136    1.5016657      16.842549      20.50007       0             -4.4441789      0              0              48.799515      48.799515      48.799515    
    439000   1.0037534      0.011990856    1.5056155      16.840285      20.49731       0             -4.443362       0              0              48.79874       48.79874       48.79874     
    440000   1.0015599      0.040617241    1.5023252      16.840904      20.498413      0             -4.4420402      0              0              48.798066      48.798066      48.798066    
    441000   0.99666856    -0.010822836    1.4949883      16.840697      20.500372      0             -4.4439866      0              0              48.797528      48.797528      48.797528    
    442000   0.99695999    -0.031119913    1.4954255      16.83833       20.500079      0             -4.445897       0              0              48.797083      48.797083      48.797083    
    443000   1.0014492      0.04262991     1.5021592      16.836139      20.496028      0             -4.443284       0              0              48.796711      48.796711      48.796711    
    444000   1.0009016      0.032516638    1.5013379      16.846843      20.50002       0             -4.4380242      0              0              48.796457      48.796457      48.796457    
    445000   1.0022273      0.048825161    1.5033264      16.844824      20.502896      0             -4.4426123      0              0              48.796444      48.796444      48.796444    
    446000   1.0007024      0.025877467    1.501039       16.842223      20.501695      0             -4.4454652      0              0              48.796622      48.796622      48.796622    
    447000   0.99861755     0.031942086    1.4979118      16.841316      20.499379      0             -4.4439601      0              0              48.796897      48.796897      48.796897    
    448000   0.99788691     0.015290995    1.4968158      16.840381      20.501611      0             -4.4478615      0              0              48.797288      48.797288      48.797288    
    449000   0.99741186    -0.051076358    1.4961033      16.844549      20.497518      0             -4.441212       0              0              48.797727      48.797727      48.797727    
    450000   1.0025744      0.0011421403   1.503847       16.846164      20.502613      0             -4.4405345      0              0              48.798206      48.798206      48.798206    
    451000   1.0028365      0.0089356853   1.5042401      16.843289      20.501867      0             -4.4456058      0              0              48.798827      48.798827      48.798827    
    452000   1.0019779     -0.034681663    1.5029523      16.839701      20.500507      0             -4.4477685      0              0              48.799611      48.799611      48.799611    
    453000   0.99866943     0.069730537    1.4979896      16.842691      20.500167      0             -4.4434166      0              0              48.800413      48.800413      48.800413    
    454000   0.99569346     0.088958951    1.4935257      16.846905      20.501781      0             -4.4417792      0              0              48.801247      48.801247      48.801247    
    455000   0.99945891     0.024780667    1.4991738      16.842676      20.502156      0             -4.4452231      0              0              48.802175      48.802175      48.802175    
    456000   1.0015144      0.033777551    1.5022571      16.84353       20.499732      0             -4.443475       0              0              48.803179      48.803179      48.803179    
    457000   1.0037337     -0.0036205688   1.505586       16.843666      20.499364      0             -4.4415857      0              0              48.804299      48.804299      48.804299    
    458000   0.99896993     0.026504425    1.4984404      16.845462      20.50221       0             -4.4421207      0              0              48.805559      48.805559      48.805559    
    459000   0.99676715     0.037309738    1.4951362      16.843208      20.495547      0             -4.4384616      0              0              48.806928      48.806928      48.806928    
    460000   0.99926401     0.0058419351   1.4988815      16.841622      20.495992      0             -4.4407323      0              0              48.808368      48.808368      48.808368    
    461000   1.001116       0.056029149    1.5016595      16.846612      20.497542      0             -4.4371283      0              0              48.809839      48.809839      48.809839    
    462000   1.0069072      0.037554852    1.5103461      16.844094      20.498365      0             -4.4390431      0              0              48.811424      48.811424      48.811424    
    463000   1.0006817      0.018954223    1.501008       16.847251      20.501105      0             -4.439311       0              0              48.813144      48.813144      48.813144    
    464000   0.99979049     0.029128241    1.4996712      16.84349       20.497147      0             -4.4382427      0              0              48.814911      48.814911      48.814911    
    465000   1.0013721     -0.023682633    1.5020437      16.840924      20.49584       0             -4.4400956      0              0              48.816671      48.816671      48.816671    
    466000   0.99837936    -0.0094215369   1.4975545      16.8478        20.497166      0             -4.4351807      0              0              48.818385      48.818385      48.818385    
    467000   0.99901594     0.017793616    1.4985094      16.85172       20.498579      0             -4.4316853      0              0              48.820061      48.820061      48.820061    
    468000   0.99925312    -0.0075395961   1.4988651      16.85277       20.502807      0             -4.4363261      0              0              48.821713      48.821713      48.821713    
    469000   1.0020401     -0.036588898    1.5030455      16.843086      20.49769       0             -4.4421402      0              0              48.823336      48.823336      48.823336    
    470000   0.99747296    -0.068363917    1.4961949      16.843576      20.49475       0             -4.4384733      0              0              48.824828      48.824828      48.824828    
    471000   0.99952528     0.001433948    1.4992734      16.844165      20.494862      0             -4.4364475      0              0              48.826166      48.826166      48.826166    
    472000   0.99951233     0.050459728    1.499254       16.851576      20.500439      0             -4.4363669      0              0              48.827408      48.827408      48.827408    
    473000   1.0004393     -0.011708998    1.5006444      16.85068       20.502278      0             -4.4384015      0              0              48.828575      48.828575      48.828575    
    474000   1.0022374     -0.044060405    1.5033415      16.847128      20.49906       0             -4.4371481      0              0              48.829634      48.829634      48.829634    
    475000   0.99823225    -0.035585147    1.4973338      16.851409      20.498391      0             -4.4326183      0              0              48.830609      48.830609      48.830609    
    476000   1.0003098     -0.040550941    1.5004501      16.844322      20.496723      0             -4.4383436      0              0              48.831485      48.831485      48.831485    
    477000   0.99853242    -0.047896791    1.4977841      16.844815      20.498031      0             -4.4386397      0              0              48.832225      48.832225      48.832225    
    478000   1.0003572     -0.01689211     1.5005213      16.848051      20.498862      0             -4.4375719      0              0              48.83281       48.83281       48.83281     
    479000   0.99980332    -0.046618031    1.4996904      16.855981      20.503138      0             -4.434334       0              0              48.833284      48.833284      48.833284    
    480000   1.0008842      0.0063572176   1.5013118      16.853362      20.500061      0             -4.4335625      0              0              48.833672      48.833672      48.833672    
    481000   0.99931836    -0.013800149    1.498963       16.849792      20.498418      0             -4.4339996      0              0              48.833958      48.833958      48.833958    
    482000   0.99622322    -0.067357952    1.4943203      16.851157      20.497981      0             -4.4333306      0              0              48.834113      48.834113      48.834113    
    483000   0.99744422    -0.037317984    1.4961518      16.851128      20.49868       0             -4.436619       0              0              48.83412       48.83412       48.83412     
    484000   1.0004043     -0.03041291     1.5005919      16.850241      20.49629       0             -4.4340901      0              0              48.834029      48.834029      48.834029    
    485000   1.0041366      0.010538178    1.5061903      16.848843      20.495234      0             -4.4339628      0              0              48.83389       48.83389       48.83389     
    486000   0.99986964     0.022469486    1.4997899      16.854932      20.497043      0             -4.4314645      0              0              48.833738      48.833738      48.833738    
    487000   0.99612535     0.023219437    1.4941735      16.856553      20.499578      0             -4.4325343      0              0              48.833594      48.833594      48.833594    
    488000   0.99907187    -0.042315149    1.4985933      16.848492      20.496439      0             -4.4359733      0              0              48.833411      48.833411      48.833411    
    489000   0.99825627    -0.036648742    1.4973699      16.8514        20.497134      0             -4.4348644      0              0              48.833143      48.833143      48.833143    
    490000   1.0024373      0.011694072    1.5036414      16.853838      20.499581      0             -4.4330669      0              0              48.832794      48.832794      48.832794    
    491000   1.003923      -0.034882876    1.5058699      16.851424      20.499437      0             -4.4350169      0              0              48.83247       48.83247       48.83247     
    492000   1.0008367     -0.039115406    1.5012404      16.849662      20.497241      0             -4.435919       0              0              48.832138      48.832138      48.832138    
    493000   1.0000185     -0.015375664    1.5000132      16.847951      20.499523      0             -4.4366785      0              0              48.8317        48.8317        48.8317      
    494000   0.99796856     0.043866299    1.4969383      16.851178      20.498039      0             -4.4339313      0              0              48.831093      48.831093      48.831093    
    495000   0.99920791    -0.046418835    1.4987973      16.853099      20.500184      0             -4.4374129      0              0              48.830467      48.830467      48.830467    
    496000   0.99922897    -0.0039437741   1.4988289      16.855577      20.499512      0             -4.4327536      0              0              48.829809      48.829809      48.829809    
    497000   1.0028989     -0.064545556    1.5043338      16.849373      20.500207      0             -4.4393283      0              0              48.829107      48.829107      48.829107    
    498000   0.99898137    -0.01024426     1.4984575      16.848315      20.497417      0             -4.4358175      0              0              48.828353      48.828353      48.828353    
    499000   0.99765889    -0.041737591    1.4964738      16.846503      20.494668      0             -4.4349438      0              0              48.827536      48.827536      48.827536    
    500000   0.99819093    -0.059012861    1.4972719      16.850072      20.504077      0             -4.4412135      0              0              48.826648      48.826648      48.826648    
    501000   1.0001964      0.015745291    1.5002801      16.854351      20.50303       0             -4.4364578      0              0              48.825735      48.825735      48.825735    
    502000   1.0042579      0.0084958179   1.5063722      16.84897       20.500391      0             -4.4374319      0              0              48.824872      48.824872      48.824872    
    503000   0.9978005     -0.010730602    1.4966862      16.853375      20.501032      0             -4.4375206      0              0              48.824024      48.824024      48.824024    
    504000   0.99783121    -0.036394995    1.4967323      16.85084       20.499274      0             -4.4362911      0              0              48.823112      48.823112      48.823112    
    505000   0.99983743    -0.0035706559   1.4997416      16.847502      20.498928      0             -4.4376662      0              0              48.822149      48.822149      48.822149    
    506000   0.99930875    -0.0090084752   1.4989486      16.848454      20.497859      0             -4.4376371      0              0              48.821142      48.821142      48.821142    
    507000   1.003088       0.012735845    1.5046174      16.847534      20.499591      0             -4.4404226      0              0              48.820171      48.820171      48.820171    
    508000   1.0061123     -0.060170499    1.5091538      16.850591      20.498077      0             -4.4375311      0              0              48.819248      48.819248      48.819248    
    509000   0.99924357     0.076924318    1.4988508      16.858733      20.504103      0             -4.4351042      0              0              48.818442      48.818442      48.818442    
    510000   1.0009057     -0.083966258    1.501344       16.846209      20.49888       0             -4.4411389      0              0              48.817718      48.817718      48.817718    
    511000   1.0026059     -0.008279591    1.5038942      16.841792      20.497014      0             -4.4422881      0              0              48.816968      48.816968      48.816968    
    512000   0.99801663    -0.0024934954   1.4970104      16.849458      20.501055      0             -4.4394391      0              0              48.816232      48.816232      48.816232    
    513000   1.0009682     -0.039045876    1.5014377      16.849422      20.501198      0             -4.4395904      0              0              48.815536      48.815536      48.815536    
    514000   1.0007447      0.053687473    1.5011024      16.852604      20.502861      0             -4.4388516      0              0              48.814872      48.814872      48.814872    
    515000   1.0001094     -0.0091137028   1.5001496      16.848741      20.5           0             -4.4399324      0              0              48.814297      48.814297      48.814297    
    516000   0.99663985    -0.046853541    1.4949453      16.846146      20.501497      0             -4.4416158      0              0              48.813737      48.813737      48.813737    
    517000   0.99637799     0.025859159    1.4945525      16.847007      20.500488      0             -4.4419786      0              0              48.813188      48.813188      48.813188    
    518000   1.0002994      0.033470819    1.5004345      16.847698      20.497505      0             -4.4374484      0              0              48.812625      48.812625      48.812625    
    519000   1.0016152      0.075859542    1.5024082      16.851391      20.502095      0             -4.4371016      0              0              48.812139      48.812139      48.812139    
    520000   1.0040977      0.029707635    1.5061319      16.845258      20.500241      0             -4.4398513      0              0              48.811856      48.811856      48.811856    
    521000   1.0037805     -0.029026598    1.5056561      16.840978      20.498919      0             -4.4430642      0              0              48.811674      48.811674      48.811674    
    522000   0.99807509    -0.016019345    1.4970981      16.844809      20.498944      0             -4.4409592      0              0              48.811507      48.811507      48.811507    
    523000   0.99930423     0.0083445117   1.4989418      16.841162      20.495634      0             -4.4426722      0              0              48.811348      48.811348      48.811348    
    524000   0.99882179     0.034781459    1.4982182      16.847911      20.500385      0             -4.4390589      0              0              48.81119       48.81119       48.81119     
    525000   1.001947       0.052237937    1.502906       16.850574      20.500117      0             -4.4380151      0              0              48.811067      48.811067      48.811067    
    526000   1.001023       0.024160827    1.50152        16.848717      20.499786      0             -4.4386431      0              0              48.811017      48.811017      48.811017    
    527000   1.001727      -0.019397081    1.5025759      16.842316      20.497166      0             -4.4406031      0              0              48.810996      48.810996      48.810996    
    528000   0.99820011     0.032785678    1.4972856      16.844691      20.50047       0             -4.4403296      0              0              48.811023      48.811023      48.811023    
    529000   0.99900178    -0.025935602    1.4984881      16.842029      20.499327      0             -4.4416969      0              0              48.811045      48.811045      48.811045    
    530000   1.0000903     -0.0056558482   1.5001209      16.843335      20.500914      0             -4.4421144      0              0              48.811064      48.811064      48.811064    
    531000   1.0014033      0.0047192006   1.5020903      16.850059      20.501689      0             -4.4372604      0              0              48.811122      48.811122      48.811122    
    532000   1.0031663     -0.016114552    1.5047349      16.845979      20.500268      0             -4.439939       0              0              48.811191      48.811191      48.811191    
    533000   0.99954515    -0.0247324      1.4993032      16.843193      20.497594      0             -4.4394862      0              0              48.811349      48.811349      48.811349    
    534000   0.99966527    -0.049975814    1.4994834      16.840481      20.498404      0             -4.441457       0              0              48.811517      48.811517      48.811517    
    535000   0.99448538     0.00016116076  1.4917136      16.847862      20.499531      0             -4.4369039      0              0              48.811693      48.811693      48.811693    
    536000   0.99994247    -0.019795223    1.4998992      16.843555      20.498228      0             -4.4402461      0              0              48.811898      48.811898      48.811898    
    537000   1.0002289      0.060032297    1.5003288      16.850534      20.501061      0             -4.4369847      0              0              48.812129      48.812129      48.812129    
    538000   1.0052148      0.020364993    1.5078076      16.845585      20.495397      0             -4.4371275      0              0              48.812449      48.812449      48.812449    
    539000   1.0015361      0.01133055     1.5022896      16.841027      20.493678      0             -4.4402835      0              0              48.812904      48.812904      48.812904    
    540000   0.99990675    -0.054500324    1.4998456      16.838567      20.496168      0             -4.44365        0              0              48.813429      48.813429      48.813429    
    541000   0.99673635     0.069618473    1.49509        16.846387      20.499969      0             -4.4384322      0              0              48.813922      48.813922      48.813922    
    542000   1.0034849      0.034302937    1.5052127      16.843273      20.498481      0             -4.4389274      0              0              48.814418      48.814418      48.814418    
    543000   1.0048292     -0.016033468    1.5072293      16.841257      20.49761       0             -4.4393771      0              0              48.81495       48.81495       48.81495     
    544000   0.99924746    -0.031252248    1.4988567      16.846269      20.50148       0             -4.4398214      0              0              48.815499      48.815499      48.815499    
    545000   1.0007395     -0.0044347277   1.5010947      16.843043      20.499001      0             -4.4395727      0              0              48.816035      48.816035      48.816035    
    546000   0.99570354     0.020779825    1.4935408      16.851882      20.501253      0             -4.4368634      0              0              48.816535      48.816535      48.816535    
    547000   0.99992384     0.024118375    1.4998712      16.848794      20.498014      0             -4.4341165      0              0              48.816986      48.816986      48.816986    
    548000   1.0027713      0.032182846    1.5041424      16.846364      20.498522      0             -4.4373919      0              0              48.81747       48.81747       48.81747     
    549000   0.99769081    -0.01825128     1.4965217      16.84675       20.501565      0             -4.4394274      0              0              48.817964      48.817964      48.817964    
    550000   0.99630067    -0.032636876    1.4944365      16.844107      20.498272      0             -4.4401166      0              0              48.818503      48.818503      48.818503    
    551000   1.000319       0.016371045    1.5004639      16.843084      20.496958      0             -4.4408645      0              0              48.818996      48.818996      48.818996    
    552000   1.0020535     -0.0023364033   1.5030657      16.847478      20.499468      0             -4.4394413      0              0              48.819561      48.819561      48.819561    
    553000   0.9998413      0.033918573    1.4997474      16.850977      20.499478      0             -4.4345572      0              0              48.820152      48.820152      48.820152    
    554000   1.0011039      0.020068207    1.5016413      16.845609      20.501811      0             -4.4440082      0              0              48.820734      48.820734      48.820734    
    555000   0.99919891    -0.021013029    1.4987838      16.843259      20.498545      0             -4.4421198      0              0              48.821224      48.821224      48.821224    
    556000   0.99578206    -0.010658234    1.4936586      16.843151      20.496651      0             -4.4386436      0              0              48.82163       48.82163       48.82163     
    557000   0.99689311    -0.054332653    1.4953252      16.840432      20.495296      0             -4.439302       0              0              48.821976      48.821976      48.821976    
    558000   0.99808255    -0.042747495    1.4971093      16.849009      20.501047      0             -4.4370433      0              0              48.822217      48.822217      48.822217    
    559000   1.0008952     -0.0093570452   1.5013283      16.848914      20.497193      0             -4.4357629      0              0              48.822394      48.822394      48.822394    
    560000   1.0023845      0.02108384     1.5035621      16.846925      20.499285      0             -4.4372541      0              0              48.822588      48.822588      48.822588    
    561000   0.99733113    -0.031402511    1.4959822      16.84859       20.498674      0             -4.4369263      0              0              48.822799      48.822799      48.822799    
    562000   0.99547884    -0.052396547    1.4932038      16.846949      20.496515      0             -4.4353562      0              0              48.822956      48.822956      48.822956    
    563000   0.99912066    -0.04876603     1.4986665      16.844151      20.496072      0             -4.4376805      0              0              48.823009      48.823009      48.823009    
    564000   1.0053618     -0.019620061    1.5080281      16.845444      20.49614       0             -4.4367952      0              0              48.823017      48.823017      48.823017    
    565000   1.0029083     -0.056309874    1.5043479      16.849224      20.500652      0             -4.4378535      0              0              48.822991      48.822991      48.822991    
    566000   0.99916232    -0.094538015    1.4987289      16.849435      20.498785      0             -4.4365201      0              0              48.822905      48.822905      48.822905    
    567000   0.99905466    -0.02295229     1.4985674      16.843681      20.49698       0             -4.4379936      0              0              48.822711      48.822711      48.822711    
    568000   0.99792835    -0.017271434    1.496878       16.845058      20.499482      0             -4.4395307      0              0              48.822417      48.822417      48.822417    
    569000   1.0017783     -0.037239522    1.5026528      16.850051      20.503735      0             -4.4394981      0              0              48.822033      48.822033      48.822033    
    570000   1.0053783      0.041281652    1.5080529      16.847521      20.498919      0             -4.4374963      0              0              48.821669      48.821669      48.821669    
    571000   0.99974993     0.026797365    1.4996104      16.849763      20.498909      0             -4.4350518      0              0              48.821353      48.821353      48.821353    
    572000   1.0024045      0.0031923694   1.5035922      16.840649      20.494307      0             -4.4374208      0              0              48.821082      48.821082      48.821082    
    573000   0.99869531    -0.018086407    1.4980284      16.843252      20.496338      0             -4.4393416      0              0              48.820798      48.820798      48.820798    
    574000   1.0017355     -0.038518149    1.5025887      16.842076      20.498756      0             -4.4419835      0              0              48.820519      48.820519      48.820519    
    575000   1.0045136      0.024679571    1.5067558      16.848159      20.500065      0             -4.4372752      0              0              48.820213      48.820213      48.820213    
    576000   1.0035256     -0.0015770206   1.5052737      16.848535      20.499396      0             -4.4356494      0              0              48.81995       48.81995       48.81995     
    577000   1.0011863     -0.0034056498   1.5017648      16.845627      20.498668      0             -4.4384007      0              0              48.819705      48.819705      48.819705    
    578000   0.99970592    -0.0047905463   1.4995443      16.844951      20.498229      0             -4.4377878      0              0              48.819482      48.819482      48.819482    
    579000   1.0000963     -0.010138761    1.5001299      16.842866      20.496624      0             -4.4386945      0              0              48.819212      48.819212      48.819212    
    580000   1.0010891     -0.013344678    1.5016191      16.844106      20.497416      0             -4.4410855      0              0              48.818905      48.818905      48.818905    
    581000   1.0037305      0.049157846    1.5055812      16.850138      20.500145      0             -4.4360731      0              0              48.818635      48.818635      48.818635    
    582000   1.0028956      0.01270296     1.5043288      16.849993      20.500623      0             -4.4382025      0              0              48.818453      48.818453      48.818453    
    583000   0.99745814    -0.009609081    1.4961727      16.851549      20.498306      0             -4.4357812      0              0              48.818271      48.818271      48.818271    
    584000   0.99988328    -0.012272477    1.4998104      16.846381      20.496976      0             -4.4370767      0              0              48.818105      48.818105      48.818105    
    585000   0.99948233    -0.01604616     1.499209       16.847965      20.503112      0             -4.4406447      0              0              48.817962      48.817962      48.817962    
    586000   1.0006856     -0.0042584081   1.5010138      16.846078      20.500201      0             -4.4395196      0              0              48.817841      48.817841      48.817841    
    587000   1.0000934      0.011600979    1.5001255      16.841664      20.498223      0             -4.4404269      0              0              48.817669      48.817669      48.817669    
    588000   0.99762253    -0.036686944    1.4964193      16.840461      20.499548      0             -4.4459156      0              0              48.817397      48.817397      48.817397    
    589000   0.99888322    -0.016083386    1.4983103      16.843603      20.50067       0             -4.4412914      0              0              48.817007      48.817007      48.817007    
    590000   1.0015444      0.082648278    1.5023021      16.846235      20.500389      0             -4.4381313      0              0              48.816554      48.816554      48.816554    
    591000   1.0002862     -0.0017575073   1.5004148      16.848013      20.501733      0             -4.4387617      0              0              48.816171      48.816171      48.816171    
    592000   1.0014054      0.0065943858   1.5020936      16.842716      20.498135      0             -4.4404205      0              0              48.815778      48.815778      48.815778    
    593000   0.99894811    -0.0063776162   1.4984076      16.84493       20.49851       0             -4.4399305      0              0              48.815391      48.815391      48.815391    
    594000   0.99947845    -0.038244755    1.4992031      16.845549      20.500721      0             -4.442884       0              0              48.814979      48.814979      48.814979    
    595000   0.99979771    -0.0084360525   1.499682       16.847243      20.499841      0             -4.4391972      0              0              48.814555      48.814555      48.814555    
    596000   0.99874843     0.11504514     1.4981081      16.850734      20.501681      0             -4.4368383      0              0              48.81418       48.81418       48.81418     
    597000   0.99910523     0.045156162    1.4986433      16.850665      20.501295      0             -4.4369895      0              0              48.813897      48.813897      48.813897    
    598000   0.99942584     0.062350847    1.4991242      16.84591       20.501298      0             -4.4413348      0              0              48.813642      48.813642      48.813642    
    599000   0.9954679     -0.020580613    1.4931874      16.847146      20.501365      0             -4.4409855      0              0              48.813394      48.813394      48.813394    
    600000   0.99819791     0.017005132    1.4972823      16.842436      20.498254      0             -4.4397886      0              0              48.813117      48.813117      48.813117    
    601000   1.0025816     -0.011839311    1.5038579      16.84331       20.498579      0             -4.4392544      0              0              48.812862      48.812862      48.812862    
    602000   1.0018146      0.012577142    1.5027073      16.849744      20.501481      0             -4.4376894      0              0              48.812664      48.812664      48.812664    
    603000   1.0004919      0.014972514    1.5007234      16.848339      20.50272       0             -4.4391814      0              0              48.812549      48.812549      48.812549    
    604000   0.99782754    -0.027582856    1.4967268      16.840944      20.498806      0             -4.4417253      0              0              48.812452      48.812452      48.812452    
    605000   1.000263      -0.0073080131   1.50038        16.837848      20.496674      0             -4.4420379      0              0              48.8123        48.8123        48.8123      
    606000   1.0011618     -0.02330353     1.5017281      16.841974      20.50022       0             -4.443093       0              0              48.812112      48.812112      48.812112    
    607000   1.0011468      0.037616643    1.5017056      16.845682      20.497991      0             -4.4376354      0              0              48.81198       48.81198       48.81198     
    608000   1.0025246      0.031692632    1.5037723      16.842367      20.497976      0             -4.4382417      0              0              48.811946      48.811946      48.811946    
    609000   0.99535237     0.014010207    1.4930141      16.842618      20.50037       0             -4.4424888      0              0              48.811931      48.811931      48.811931    
    610000   0.99776828     0.00039925949  1.4966379      16.838474      20.498203      0             -4.4446967      0              0              48.811865      48.811865      48.811865    
    611000   1.0025205     -0.034285038    1.5037662      16.837701      20.496096      0             -4.4426646      0              0              48.811728      48.811728      48.811728    
    612000   1.0024227      0.019181       1.5036194      16.841891      20.499659      0             -4.4416007      0              0              48.811597      48.811597      48.811597    
    613000   1.0026421     -0.0071714276   1.5039486      16.84071       20.495124      0             -4.4385343      0              0              48.811506      48.811506      48.811506    
    614000   1.0009182     -0.028200299    1.5013628      16.839947      20.497537      0             -4.4424038      0              0              48.811464      48.811464      48.811464    
    615000   0.99544683     0.0074273861   1.4931558      16.839281      20.49586       0             -4.440625       0              0              48.811409      48.811409      48.811409    
    616000   0.99229697    -0.0031810902   1.488431       16.840623      20.49855       0             -4.4417217      0              0              48.811338      48.811338      48.811338    
    617000   0.99688228     0.017035753    1.4953089      16.841872      20.498698      0             -4.4415831      0              0              48.811209      48.811209      48.811209    
    618000   0.99876755    -0.016774206    1.4981368      16.843496      20.50024       0             -4.4428749      0              0              48.811065      48.811065      48.811065    
    619000   1.0031415      0.0056878294   1.5046976      16.842653      20.497329      0             -4.4376452      0              0              48.81098       48.81098       48.81098     
    620000   1.0036451     -0.020332433    1.505453       16.843543      20.498358      0             -4.4378521      0              0              48.810922      48.810922      48.810922    
    621000   1.001431      -0.036410809    1.5021319      16.841599      20.497072      0             -4.4415395      0              0              48.810925      48.810925      48.810925    
    622000   0.99463962    -0.015646999    1.491945       16.84461       20.499551      0             -4.4406148      0              0              48.810958      48.810958      48.810958    
    623000   0.9961669     -0.080856817    1.4942359      16.845346      20.499791      0             -4.4427668      0              0              48.810912      48.810912      48.810912    
    624000   1.0017993      0.022965046    1.5026844      16.841618      20.497428      0             -4.4416831      0              0              48.810884      48.810884      48.810884    
    625000   1.002742       0.034468956    1.5040984      16.841468      20.496027      0             -4.4410285      0              0              48.810882      48.810882      48.810882    
    626000   1.0019939     -0.016779113    1.5029762      16.8425        20.500054      0             -4.4405261      0              0              48.810859      48.810859      48.810859    
    627000   0.99887946     0.01121226     1.4983047      16.839943      20.49624       0             -4.4404345      0              0              48.810858      48.810858      48.810858    
    628000   0.99553291    -0.038223002    1.4932849      16.839816      20.497039      0             -4.441578       0              0              48.81091       48.81091       48.81091     
    629000   1.0000064     -0.0031954043   1.499995       16.837606      20.499684      0             -4.4452834      0              0              48.810946      48.810946      48.810946    
    630000   0.9999285      0.042934368    1.4998782      16.842208      20.495911      0             -4.4399307      0              0              48.810933      48.810933      48.810933    
    631000   0.99889643    -0.037947393    1.4983301      16.844844      20.497903      0             -4.4364303      0              0              48.810929      48.810929      48.810929    
    632000   0.99960426     0.0031645309   1.4993919      16.843482      20.501213      0             -4.4422507      0              0              48.810928      48.810928      48.810928    
    633000   1.0016307     -0.022451129    1.5024315      16.84          20.497939      0             -4.4430284      0              0              48.810954      48.810954      48.810954    
    634000   0.99672419    -0.0039904298   1.4950718      16.846519      20.501701      0             -4.4425015      0              0              48.810949      48.810949      48.810949    
    635000   1.0026152      0.030325007    1.5039082      16.840339      20.494185      0             -4.4376221      0              0              48.810934      48.810934      48.810934    
    636000   1.0022008      0.012972482    1.5032866      16.842907      20.503012      0             -4.4427292      0              0              48.811         48.811         48.811       
    637000   0.99991201     0.044192472    1.4998535      16.84319       20.500013      0             -4.4409605      0              0              48.811134      48.811134      48.811134    
    638000   0.9959517      0.0092026973   1.4939131      16.841326      20.502723      0             -4.4431199      0              0              48.811258      48.811258      48.811258    
    639000   0.9960691     -0.031071529    1.4940892      16.84148       20.498933      0             -4.4425195      0              0              48.811314      48.811314      48.811314    
    640000   0.99994215    -0.0348554      1.4998987      16.843632      20.499572      0             -4.4427582      0              0              48.811333      48.811333      48.811333    
    641000   1.0020563     -0.018862345    1.5030699      16.843276      20.496792      0             -4.4400511      0              0              48.811348      48.811348      48.811348    
    642000   1.003661      -0.012953188    1.5054768      16.841005      20.49702       0             -4.4420798      0              0              48.811423      48.811423      48.811423    
    643000   1.0010597     -0.015016469    1.5015749      16.842992      20.497424      0             -4.4413387      0              0              48.811553      48.811553      48.811553    
    644000   0.99787218     0.050147128    1.4967938      16.844353      20.497044      0             -4.4386936      0              0              48.811672      48.811672      48.811672    
    645000   0.99458598    -0.0099162681   1.4918645      16.846557      20.4989        0             -4.436799       0              0              48.811778      48.811778      48.811778    
    646000   1.0009534     -0.0051542489   1.5014156      16.841612      20.496624      0             -4.4410268      0              0              48.811874      48.811874      48.811874    
    647000   1.0036894      0.0050915294   1.5055195      16.844487      20.499766      0             -4.4392251      0              0              48.812035      48.812035      48.812035    
    648000   1.0000507      0.015236513    1.5000615      16.84933       20.500974      0             -4.4364071      0              0              48.81227       48.81227       48.81227     
    649000   1.0000054     -0.015797838    1.4999935      16.842294      20.500455      0             -4.4426458      0              0              48.812577      48.812577      48.812577    
    650000   0.99477699    -0.072007707    1.492151       16.842784      20.499059      0             -4.4437834      0              0              48.812792      48.812792      48.812792    
    651000   0.99445139    -0.011937224    1.4916626      16.846824      20.501928      0             -4.4424158      0              0              48.812889      48.812889      48.812889    
    652000   0.99912753     0.023157477    1.4986768      16.846461      20.49985       0             -4.4398606      0              0              48.81296       48.81296       48.81296     
    653000   1.0029891      0.0013117636   1.504469       16.844881      20.498175      0             -4.4396184      0              0              48.813017      48.813017      48.813017    
    654000   1.0005144      0.048598196    1.5007571      16.846084      20.498726      0             -4.4369731      0              0              48.813171      48.813171      48.813171    
    655000   1.000947      -0.01423307     1.501406       16.837414      20.500692      0             -4.4470833      0              0              48.813419      48.813419      48.813419    
    656000   0.99714864    -0.038477717    1.4957084      16.837986      20.496844      0             -4.4409515      0              0              48.81361       48.81361       48.81361     
    657000   0.99874174    -0.022089989    1.4980981      16.837889      20.500072      0             -4.4445098      0              0              48.813717      48.813717      48.813717    
    658000   0.99961635     0.080132517    1.49941        16.840453      20.497638      0             -4.4399584      0              0              48.813794      48.813794      48.813794    
    659000   1.0044344      0.0051701945   1.506637       16.838584      20.497608      0             -4.4434194      0              0              48.813936      48.813936      48.813936    
    660000   1.0008637     -0.0040762965   1.501281       16.847158      20.501237      0             -4.4397349      0              0              48.814103      48.814103      48.814103    
    661000   1.0016826     -0.008918544    1.5025094      16.847965      20.50314       0             -4.439538       0              0              48.814324      48.814324      48.814324    
    662000   1.0001168      0.034356372    1.5001607      16.84667       20.499759      0             -4.4370171      0              0              48.814581      48.814581      48.814581    
    663000   1.000989       0.031836363    1.5014689      16.838838      20.496343      0             -4.4410624      0              0              48.814862      48.814862      48.814862    
    664000   0.99467432    -0.019326235    1.491997       16.845078      20.498728      0             -4.4394455      0              0              48.815117      48.815117      48.815117    
    665000   1.0026543     -0.064758615    1.5039669      16.837456      20.49966       0             -4.4456227      0              0              48.815333      48.815333      48.815333    
    666000   1.0027102     -0.0045262548   1.5040507      16.845966      20.500148      0             -4.4405954      0              0              48.815507      48.815507      48.815507    
    667000   1.004565       0.012023976    1.5068328      16.842733      20.500274      0             -4.4418479      0              0              48.815705      48.815705      48.815705    
    668000   1.0008298      0.051439412    1.5012302      16.84347       20.499354      0             -4.4391184      0              0              48.815925      48.815925      48.815925    
    669000   0.99984851     0.00097500704  1.4997582      16.842017      20.498689      0             -4.4413205      0              0              48.81621       48.81621       48.81621     
    670000   0.99850591    -0.0094670017   1.4977443      16.842986      20.497921      0             -4.4391026      0              0              48.816474      48.816474      48.816474    
    671000   1.0017231      0.057180883    1.5025701      16.841293      20.494891      0             -4.4354168      0              0              48.816719      48.816719      48.816719    
    672000   1.0037236      0.031304468    1.5055708      16.849606      20.499945      0             -4.4327897      0              0              48.817037      48.817037      48.817037    
    673000   1.0033206      0.042676608    1.5049664      16.847408      20.503035      0             -4.4391096      0              0              48.817501      48.817501      48.817501    
    674000   1.0012255     -0.0026944666   1.5018237      16.842845      20.501233      0             -4.4409048      0              0              48.818014      48.818014      48.818014    
    675000   0.9958464      0.033559692    1.4937551      16.847317      20.501824      0             -4.4381023      0              0              48.818473      48.818473      48.818473    
    676000   0.99745594    -0.035804054    1.4961694      16.845953      20.502023      0             -4.4408736      0              0              48.818885      48.818885      48.818885    
    677000   1.001052       0.0019854637   1.5015634      16.845935      20.498486      0             -4.4365493      0              0              48.819291      48.819291      48.819291    
    678000   1.0037505     -0.012988054    1.5056111      16.850467      20.498785      0             -4.4334401      0              0              48.819739      48.819739      48.819739    
    679000   1.0053156     -0.023516496    1.5079588      16.84628       20.497935      0             -4.4371461      0              0              48.820282      48.820282      48.820282    
    680000   0.99949981     0.036766133    1.4992352      16.847439      20.498182      0             -4.4345449      0              0              48.820874      48.820874      48.820874    
    681000   0.99806004     0.045918184    1.4970755      16.847816      20.499077      0             -4.4350636      0              0              48.821469      48.821469      48.821469    
    682000   1.0007876     -0.051030947    1.5011668      16.84289       20.500524      0             -4.4430606      0              0              48.822029      48.822029      48.822029    
    683000   0.99963477     0.048669127    1.4994376      16.844676      20.49872       0             -4.4363489      0              0              48.822514      48.822514      48.822514    
    684000   0.99813942     0.025322278    1.4971946      16.848841      20.500908      0             -4.4366013      0              0              48.822933      48.822933      48.822933    
    685000   1.0011956     -0.026206167    1.5017788      16.849113      20.503578      0             -4.4378519      0              0              48.823264      48.823264      48.823264    
    686000   1.0024873      0.0093895933   1.5037164      16.847835      20.502718      0             -4.4371304      0              0              48.823529      48.823529      48.823529    
    687000   1.001167      -0.020908187    1.501736       16.839899      20.498538      0             -4.441498       0              0              48.823772      48.823772      48.823772    
    688000   0.99621659     0.017221549    1.4943104      16.844897      20.498577      0             -4.435183       0              0              48.823902      48.823902      48.823902    
    689000   1.0018769      0.00041118368  1.5028007      16.838505      20.498149      0             -4.4419027      0              0              48.82395       48.82395       48.82395     
    690000   1.0007519     -0.013612844    1.5011134      16.847117      20.500368      0             -4.436523       0              0              48.823941      48.823941      48.823941    
    691000   1.0055488     -0.00082375596  1.5083085      16.845994      20.501078      0             -4.4384219      0              0              48.823884      48.823884      48.823884    
    692000   1.0020733      0.058353628    1.5030953      16.84827       20.498062      0             -4.4313239      0              0              48.823785      48.823785      48.823785    
    693000   1.0029815      0.013650243    1.5044577      16.842661      20.499894      0             -4.4385775      0              0              48.823719      48.823719      48.823719    
    694000   0.99985346    -0.024822569    1.4997656      16.842319      20.500801      0             -4.4392544      0              0              48.823616      48.823616      48.823616    
    695000   0.9980658     -0.0066549381   1.4970842      16.840705      20.495059      0             -4.4363427      0              0              48.823388      48.823388      48.823388    
    696000   0.99790883    -0.0061208167   1.4968487      16.840633      20.499128      0             -4.4399791      0              0              48.823036      48.823036      48.823036    
    697000   1.0038585      0.012213553    1.5057731      16.842401      20.49936       0             -4.437596       0              0              48.822591      48.822591      48.822591    
    698000   1.0002282      0.0062471331   1.5003277      16.849381      20.503622      0             -4.4368749      0              0              48.822124      48.822124      48.822124    
    699000   0.99839622     0.047092129    1.4975798      16.84718       20.49979       0             -4.4345638      0              0              48.821677      48.821677      48.821677    
    700000   0.99833015     0.0021019256   1.4974807      16.842039      20.495905      0             -4.4357407      0              0              48.821243      48.821243      48.821243    
    701000   0.99761314    -0.004523519    1.4964052      16.842016      20.498111      0             -4.4374223      0              0              48.820766      48.820766      48.820766    
    702000   1.0021837     -0.046990715    1.5032609      16.84305       20.498487      0             -4.4370024      0              0              48.820215      48.820215      48.820215    
    703000   1.0019086      0.0032378321   1.5028483      16.84983       20.500686      0             -4.434014       0              0              48.819616      48.819616      48.819616    
    704000   1.0000579      0.00038538039  1.5000724      16.847009      20.499039      0             -4.4351895      0              0              48.819071      48.819071      48.819071    
    705000   0.99912412     0.0075250037   1.4986716      16.84215       20.499062      0             -4.4387428      0              0              48.818568      48.818568      48.818568    
    706000   0.99904207     0.0063730225   1.4985486      16.840319      20.499845      0             -4.4399532      0              0              48.818025      48.818025      48.818025    
    707000   1.0006099     -0.0022967367   1.5009003      16.838663      20.498422      0             -4.4398691      0              0              48.817404      48.817404      48.817404    
    708000   1.0019149     -0.032870621    1.5028578      16.841383      20.498638      0             -4.4411865      0              0              48.816753      48.816753      48.816753    
    709000   1.005792      -0.03442194     1.5086734      16.844152      20.498341      0             -4.4376242      0              0              48.816106      48.816106      48.816106    
    710000   1.0008245     -0.016630079    1.5012222      16.848523      20.50073       0             -4.4376329      0              0              48.815534      48.815534      48.815534    
    711000   0.99917367    -0.0022079005   1.498746       16.843853      20.501765      0             -4.4420614      0              0              48.814955      48.814955      48.814955    
    712000   1.0009087     -0.036898048    1.5013485      16.839087      20.497423      0             -4.443479       0              0              48.814329      48.814329      48.814329    
    713000   0.99943039     0.026217726    1.499131       16.843342      20.497303      0             -4.4389114      0              0              48.81362       48.81362       48.81362     
    714000   1.0016239     -0.049077857    1.5024212      16.8426        20.500716      0             -4.4418576      0              0              48.812913      48.812913      48.812913    
    715000   1.0009477     -0.026912266    1.501407       16.846089      20.499978      0             -4.4374803      0              0              48.812174      48.812174      48.812174    
    716000   1.0031901      0.013390582    1.5047706      16.843563      20.499701      0             -4.4391014      0              0              48.811458      48.811458      48.811458    
    717000   0.99533135    -0.023053947    1.4929825      16.849748      20.502998      0             -4.439387       0              0              48.810819      48.810819      48.810819    
    718000   0.99735652     0.037825229    1.4960203      16.841773      20.501097      0             -4.4429378      0              0              48.810152      48.810152      48.810152    
    719000   0.9997039     -0.019289856    1.4995413      16.837463      20.500174      0             -4.4460184      0              0              48.809447      48.809447      48.809447    
    720000   0.99837676     0.050356254    1.4975506      16.842353      20.499599      0             -4.440885       0              0              48.80873       48.80873       48.80873     
    721000   1.0007167      0.021093505    1.5010604      16.847684      20.503265      0             -4.4403818      0              0              48.808056      48.808056      48.808056    
    722000   1.0031311      0.010198147    1.504682       16.844943      20.50079       0             -4.4386112      0              0              48.807459      48.807459      48.807459    
    723000   1.0012213      0.035712946    1.5018174      16.840365      20.500727      0             -4.4419451      0              0              48.806972      48.806972      48.806972    
    724000   0.99604404    -0.016390761    1.4940516      16.844861      20.501         0             -4.4387591      0              0              48.806576      48.806576      48.806576    
    725000   1.0006461      0.021220857    1.5009546      16.837627      20.496625      0             -4.4421316      0              0              48.806197      48.806197      48.806197    
    726000   0.99762286     0.05458665     1.4964198      16.841852      20.496785      0             -4.4387846      0              0              48.805835      48.805835      48.805835    
    727000   1.0002227      0.0099347597   1.5003195      16.83693       20.495544      0             -4.4411827      0              0              48.805506      48.805506      48.805506    
    728000   0.99997956     0.012496723    1.4999548      16.837333      20.500286      0             -4.4460774      0              0              48.805223      48.805223      48.805223    
    729000   0.99685141    -0.015558274    1.4952626      16.846002      20.501612      0             -4.439414       0              0              48.804968      48.804968      48.804968    
    730000   1.000992       0.036842212    1.5014734      16.844846      20.498057      0             -4.4388709      0              0              48.804789      48.804789      48.804789    
    731000   1.0045072      0.024645282    1.5067462      16.841492      20.49626       0             -4.4400005      0              0              48.804732      48.804732      48.804732    
    732000   1.0006475     -0.013058482    1.5009568      16.838636      20.499017      0             -4.4451882      0              0              48.804785      48.804785      48.804785    
    733000   0.99481619     0.029933016    1.4922098      16.842448      20.499992      0             -4.4416669      0              0              48.804879      48.804879      48.804879    
    734000   1.0011896      0.056002812    1.5017698      16.837444      20.498061      0             -4.4453163      0              0              48.804977      48.804977      48.804977    
    735000   1.0014006      0.010490462    1.5020863      16.842333      20.501329      0             -4.4457199      0              0              48.805016      48.805016      48.805016    
    736000   1.0042343     -0.0025017105   1.5063368      16.839338      20.498195      0             -4.4431571      0              0              48.805076      48.805076      48.805076    
    737000   1.0008709      0.011859854    1.5012918      16.841391      20.501949      0             -4.4435606      0              0              48.805234      48.805234      48.805234    
    738000   0.9962622      0.0045380274   1.4943788      16.837943      20.500634      0             -4.4459848      0              0              48.805443      48.805443      48.805443    
    739000   0.99293634     0.011009793    1.4893901      16.838592      20.503103      0             -4.4473997      0              0              48.805603      48.805603      48.805603    
    740000   0.99752948     0.029056029    1.4962797      16.8388        20.499382      0             -4.4438027      0              0              48.805715      48.805715      48.805715    
    741000   1.0019816      0.026832907    1.5029579      16.839051      20.499517      0             -4.444982       0              0              48.805851      48.805851      48.805851    
    742000   1.0015329      0.0033103333   1.5022848      16.841355      20.502127      0             -4.4433573      0              0              48.805995      48.805995      48.805995    
    743000   0.99678027     0.0061353296   1.4951559      16.843639      20.50112       0             -4.4422222      0              0              48.806166      48.806166      48.806166    
    744000   0.99765623     0.025593265    1.4964698      16.83672       20.496034      0             -4.4443068      0              0              48.806332      48.806332      48.806332    
    745000   1.0006731      0.039714543    1.5009952      16.837252      20.491683      0             -4.4405975      0              0              48.806517      48.806517      48.806517    
    746000   1.002438      -0.048696282    1.5036424      16.844046      20.49955       0             -4.4415963      0              0              48.806767      48.806767      48.806767    
    747000   1.0026958      0.06633345     1.5040291      16.841862      20.495445      0             -4.4406566      0              0              48.807119      48.807119      48.807119    
    748000   0.99867716    -0.0021636357   1.4980012      16.842698      20.496136      0             -4.442016       0              0              48.80761       48.80761       48.80761     
    749000   0.99865981    -0.020970356    1.4979752      16.841053      20.498819      0             -4.4456034      0              0              48.808188      48.808188      48.808188    
    750000   1.0023073      0.033445096    1.5034463      16.842695      20.498452      0             -4.4440113      0              0              48.808749      48.808749      48.808749    
    751000   0.99867817     0.059007209    1.4980027      16.854786      20.497867      0             -4.4318251      0              0              48.809404      48.809404      48.809404    
    752000   1.0040346      0.030799329    1.5060373      16.844004      20.498392      0             -4.4420753      0              0              48.810248      48.810248      48.810248    
    753000   0.99875124    -0.017704617    1.4981123      16.845411      20.501478      0             -4.4447243      0              0              48.811181      48.811181      48.811181    
    754000   0.99578502     0.01795179     1.493663       16.849078      20.500009      0             -4.4379165      0              0              48.812142      48.812142      48.812142    
    755000   1.0005804     -0.02668985     1.500856       16.845627      20.499356      0             -4.4431095      0              0              48.813153      48.813153      48.813153    
    756000   1.0007647      0.0095089704   1.5011324      16.848241      20.499058      0             -4.4384907      0              0              48.814232      48.814232      48.814232    
    757000   1.0010829      0.0185171      1.5016098      16.846373      20.500744      0             -4.4404864      0              0              48.815364      48.815364      48.815364    
    758000   0.99715509    -0.03158277     1.4957181      16.848872      20.501186      0             -4.4407979      0              0              48.816494      48.816494      48.816494    
    759000   0.99887604     0.052684313    1.4982995      16.845674      20.500016      0             -4.4374187      0              0              48.817602      48.817602      48.817602    
    760000   1.0004725      0.043808837    1.5006942      16.844062      20.497396      0             -4.4373075      0              0              48.818727      48.818727      48.818727    
    761000   1.0006063      0.029478427    1.5008948      16.844965      20.499182      0             -4.4371812      0              0              48.819867      48.819867      48.819867    
    762000   1.0010534     -0.043239128    1.5015655      16.843105      20.49878       0             -4.4413657      0              0              48.821014      48.821014      48.821014    
    763000   0.99933569     0.0025928723   1.498989       16.845106      20.496593      0             -4.4364411      0              0              48.82208       48.82208       48.82208     
    764000   1.0004139      0.0029996039   1.5006062      16.847505      20.500151      0             -4.4375071      0              0              48.823123      48.823123      48.823123    
    765000   1.0004277      0.020266884    1.500627       16.853243      20.501082      0             -4.4344149      0              0              48.82414       48.82414       48.82414     
    766000   1.0044525     -0.0056095563   1.5066641      16.85028       20.499694      0             -4.4376421      0              0              48.82521       48.82521       48.82521     
    767000   1.0031166      0.048069878    1.5046603      16.849036      20.498074      0             -4.4344062      0              0              48.826348      48.826348      48.826348    
    768000   0.99756943    -0.0054579646   1.4963396      16.847126      20.496395      0             -4.4346005      0              0              48.827549      48.827549      48.827549    
    769000   0.99963856    -0.0083797806   1.4994433      16.843932      20.496756      0             -4.4381937      0              0              48.828721      48.828721      48.828721    
    770000   1.0008139     -0.041316189    1.5012062      16.847594      20.498662      0             -4.4374465      0              0              48.829812      48.829812      48.829812    
    771000   1.0007131     -0.038311769    1.5010551      16.853321      20.502644      0             -4.4353796      0              0              48.830761      48.830761      48.830761    
    772000   1.0011638     -0.075906887    1.5017311      16.854128      20.5007        0             -4.4337891      0              0              48.831615      48.831615      48.831615    
    773000   0.99755793     0.033407578    1.4963224      16.854179      20.500853      0             -4.4339573      0              0              48.832403      48.832403      48.832403    
    774000   0.99743451    -0.010692058    1.4961372      16.845074      20.496223      0             -4.4364607      0              0              48.833101      48.833101      48.833101    
    775000   0.99643255    -0.042700971    1.4946343      16.849779      20.500923      0             -4.4371772      0              0              48.833633      48.833633      48.833633    
    776000   1.0002907     -0.040287601    1.5004215      16.851924      20.498265      0             -4.4319488      0              0              48.834003      48.834003      48.834003    
    777000   1.0015085     -0.048261838    1.5022482      16.852493      20.500755      0             -4.434841       0              0              48.834306      48.834306      48.834306    
    778000   0.99932348     0.0062368728   1.4989707      16.853506      20.501916      0             -4.4343777      0              0              48.834554      48.834554      48.834554    
    779000   0.99814548    -0.031561302    1.4972037      16.848217      20.493935      0             -4.4330144      0              0              48.834752      48.834752      48.834752    
    780000   0.99601083    -0.026805637    1.4940018      16.84583       20.495948      0             -4.4366751      0              0              48.834812      48.834812      48.834812    
    781000   0.99796104    -0.040659546    1.496927       16.851959      20.500312      0             -4.434665       0              0              48.83469       48.83469       48.83469     
    782000   1.0025593      0.0084277858   1.5038243      16.851625      20.498585      0             -4.4343947      0              0              48.834492      48.834492      48.834492    
    783000   1.0025973     -0.04974052     1.5038813      16.851754      20.501305      0             -4.4370498      0              0              48.834174      48.834174      48.834174    
    784000   0.99525335     0.026976882    1.4928655      16.858556      20.505544      0             -4.4334898      0              0              48.833734      48.833734      48.833734    
    785000   0.9997247     -0.085263667    1.4995725      16.845537      20.498753      0             -4.438345       0              0              48.833197      48.833197      48.833197    
    786000   0.99813261    -0.060627506    1.4971844      16.845388      20.49703       0             -4.4359315      0              0              48.832449      48.832449      48.832449    
    787000   1.0020511     -0.10199287     1.5030621      16.848352      20.497129      0             -4.4366442      0              0              48.831508      48.831508      48.831508    
    788000   1.0043278     -0.01289395     1.5064771      16.852071      20.499964      0             -4.4370285      0              0              48.830454      48.830454      48.830454    
    789000   1.0015886     -0.0020913885   1.5023683      16.854368      20.499768      0             -4.4334029      0              0              48.829359      48.829359      48.829359    
    790000   0.99424931     0.025152331    1.4913595      16.858598      20.501366      0             -4.4306996      0              0              48.828232      48.828232      48.828232    
    791000   1.0014665     -0.022079029    1.5021852      16.846046      20.497863      0             -4.4381236      0              0              48.827088      48.827088      48.827088    
    792000   0.99918071    -0.010026661    1.4987565      16.849756      20.500433      0             -4.437136       0              0              48.825883      48.825883      48.825883    
    793000   1.0044731     -0.022454874    1.5066951      16.848558      20.50252       0             -4.4398024      0              0              48.824687      48.824687      48.824687    
    794000   1.0016102      0.022602315    1.5024007      16.854576      20.502699      0             -4.4359209      0              0              48.823464      48.823464      48.823464    
    795000   0.99948446     0.0004173488   1.4992121      16.851227      20.498622      0             -4.4363289      0              0              48.822234      48.822234      48.822234    
    796000   0.99967299     0.062574592    1.4994949      16.845368      20.49766       0             -4.4392633      0              0              48.820984      48.820984      48.820984    
    797000   0.99701147     0.022592127    1.4955027      16.850143      20.500259      0             -4.439576       0              0              48.819672      48.819672      48.819672    
    798000   1.0017228      0.052928021    1.5025697      16.846564      20.494224      0             -4.4347407      0              0              48.818334      48.818334      48.818334    
    799000   1.0030789      0.019253517    1.5046038      16.845569      20.496849      0             -4.4387349      0              0              48.817079      48.817079      48.817079    
    800000   0.99774773     0.029579217    1.4966071      16.852487      20.50052       0             -4.4359717      0              0              48.815927      48.815927      48.815927    
    801000   1.0019876      0.014411173    1.5029668      16.844947      20.497199      0             -4.4380139      0              0              48.814859      48.814859      48.814859    
    802000   1.0005282      0.0172627      1.5007778      16.843899      20.498771      0             -4.4409046      0              0              48.813785      48.813785      48.813785    
    803000   0.99983867    -0.00145162     1.4997435      16.842061      20.49738       0             -4.4428335      0              0              48.812705      48.812705      48.812705    
    804000   0.99869388    -0.030712923    1.4980263      16.845093      20.501602      0             -4.4430122      0              0              48.811603      48.811603      48.811603    
    805000   1.0054908      0.030368763    1.5082216      16.840724      20.496459      0             -4.4406193      0              0              48.810528      48.810528      48.810528    
    806000   1.0011002      0.088594199    1.5016358      16.850462      20.502111      0             -4.4377842      0              0              48.809529      48.809529      48.809529    
    807000   0.99813479     0.030301157    1.4971877      16.848918      20.503651      0             -4.4401251      0              0              48.808635      48.808635      48.808635    
    808000   1.0008173     -0.065567682    1.5012114      16.837181      20.498935      0             -4.4465964      0              0              48.807796      48.807796      48.807796    
    809000   0.99837961     0.0098995046   1.4975549      16.841979      20.498456      0             -4.4411665      0              0              48.806952      48.806952      48.806952    
    810000   1.0025396      0.062760566    1.5037948      16.840198      20.498447      0             -4.4437147      0              0              48.806178      48.806178      48.806178    
    811000   1.0019244      0.025384362    1.502872       16.845144      20.499733      0             -4.4397948      0              0              48.805491      48.805491      48.805491    
    812000   0.99785152    -0.012970497    1.4967628      16.846579      20.495927      0             -4.4384062      0              0              48.804896      48.804896      48.804896    
    813000   0.99716829     0.02808196     1.4957379      16.839958      20.496837      0             -4.4445834      0              0              48.804395      48.804395      48.804395    
    814000   0.99618616     0.067312934    1.4942647      16.845094      20.498648      0             -4.4396268      0              0              48.803912      48.803912      48.803912    
    815000   1.0004516      0.023389391    1.5006628      16.845626      20.500402      0             -4.4398895      0              0              48.803495      48.803495      48.803495    
    816000   1.0007478     -0.0054543044   1.5011071      16.845928      20.502401      0             -4.4434685      0              0              48.803216      48.803216      48.803216    
    817000   1.0016679     -0.016484255    1.5024872      16.84193       20.501501      0             -4.4456325      0              0              48.803047      48.803047      48.803047    
    818000   1.0009703      0.04032781     1.5014409      16.84062       20.498597      0             -4.4426368      0              0              48.802956      48.802956      48.802956    
    819000   0.99909464     0.0075076564   1.4986274      16.842121      20.498528      0             -4.4422508      0              0              48.802988      48.802988      48.802988    
    820000   0.99626613     0.045478678    1.4943847      16.846525      20.500636      0             -4.4388354      0              0              48.803049      48.803049      48.803049    
    821000   1.0030641      0.0045767745   1.5045815      16.837663      20.496979      0             -4.4431706      0              0              48.803207      48.803207      48.803207    
    822000   1.0005313      0.048225011    1.5007824      16.840964      20.498438      0             -4.4424109      0              0              48.803444      48.803444      48.803444    
    823000   1.000491       0.0055935463   1.5007219      16.838761      20.49903       0             -4.4445941      0              0              48.803798      48.803798      48.803798    
    824000   0.9982983     -0.013861291    1.4974329      16.840615      20.497839      0             -4.442184       0              0              48.804253      48.804253      48.804253    
    825000   0.99816905     0.0031585613   1.497239       16.841927      20.500028      0             -4.4412866      0              0              48.804765      48.804765      48.804765    
    826000   1.0005992      0.022279844    1.5008842      16.842185      20.498446      0             -4.4398739      0              0              48.805324      48.805324      48.805324    
    827000   1.0018165      0.028729523    1.5027102      16.845643      20.499146      0             -4.4386226      0              0              48.805999      48.805999      48.805999    
    828000   1.0026265      0.017828971    1.5039252      16.844217      20.50119       0             -4.4423538      0              0              48.806795      48.806795      48.806795    
    829000   1.0020088     -0.0080275765   1.5029986      16.83555       20.495252      0             -4.4447138      0              0              48.807652      48.807652      48.807652    
    830000   0.99527019    -0.026169289    1.4928908      16.842718      20.499212      0             -4.4437932      0              0              48.808497      48.808497      48.808497    
    831000   0.9984827      0.0059533225   1.4977095      16.843796      20.50104       0             -4.4418767      0              0              48.809293      48.809293      48.809293    
    832000   1.003326       0.015071381    1.5049744      16.839983      20.498601      0             -4.4408527      0              0              48.810101      48.810101      48.810101    
    833000   1.0002457     -0.070554324    1.5003541      16.84318       20.497707      0             -4.4402786      0              0              48.810912      48.810912      48.810912    
    834000   0.99799543    -0.037167291    1.4969786      16.844344      20.500344      0             -4.4426012      0              0              48.811675      48.811675      48.811675    
    835000   1.0027848      0.014948469    1.5041626      16.83973       20.496564      0             -4.441978       0              0              48.812453      48.812453      48.812453    
    836000   1.0030021     -0.035737327    1.5044886      16.850208      20.502818      0             -4.4378459      0              0              48.813334      48.813334      48.813334    
    837000   1.004476      -0.00096572601  1.5066994      16.848         20.501724      0             -4.4379006      0              0              48.814382      48.814382      48.814382    
    838000   1.0032906      0.0090987804   1.5049213      16.840827      20.496933      0             -4.4401708      0              0              48.815554      48.815554      48.815554    
    839000   1.0001452     -0.027179711    1.5002032      16.841897      20.496327      0             -4.4415552      0              0              48.81675       48.81675       48.81675     
    840000   0.99788486    -0.077112118    1.4968128      16.846145      20.501097      0             -4.4406919      0              0              48.817897      48.817897      48.817897    
    841000   0.99851184    -0.032834098    1.4977532      16.849709      20.499751      0             -4.4340016      0              0              48.819006      48.819006      48.819006    
    842000   1.0020239     -0.00056610257  1.5030212      16.851603      20.50597       0             -4.4392934      0              0              48.820121      48.820121      48.820121    
    843000   1.0032796     -0.0072070605   1.5049048      16.847137      20.498696      0             -4.4367434      0              0              48.82126       48.82126       48.82126     
    844000   0.99884901     0.029292537    1.498259       16.843245      20.496215      0             -4.4376595      0              0              48.822503      48.822503      48.822503    
    845000   0.99960142     0.0025838369   1.4993876      16.84193       20.499235      0             -4.4389943      0              0              48.823748      48.823748      48.823748    
    846000   1.0004668     -0.04203184     1.5006857      16.843433      20.501732      0             -4.4408923      0              0              48.82489       48.82489       48.82489     
    847000   1.0018021      0.021970233    1.5026886      16.846734      20.500134      0             -4.4351259      0              0              48.825964      48.825964      48.825964    
    848000   1.0025813      0.0047981848   1.5038574      16.850795      20.501104      0             -4.4325446      0              0              48.827034      48.827034      48.827034    
    849000   1.0019613     -0.029274511    1.5029273      16.849013      20.501439      0             -4.435744       0              0              48.828184      48.828184      48.828184    
    850000   0.99611683    -0.040547996    1.4941607      16.848348      20.497633      0             -4.4344363      0              0              48.82934       48.82934       48.82934     
    851000   0.99915649    -0.022445287    1.4987202      16.842374      20.494683      0             -4.4366178      0              0              48.830435      48.830435      48.830435    
    852000   0.99805482    -0.039906013    1.4970677      16.850467      20.500129      0             -4.4354077      0              0              48.831432      48.831432      48.831432    
    853000   1.0025413     -0.022343062    1.5037974      16.849157      20.49907       0             -4.4344936      0              0              48.832353      48.832353      48.832353    
    854000   1.0005314      0.0071341937   1.5007825      16.850343      20.498639      0             -4.4314197      0              0              48.833264      48.833264      48.833264    
    855000   0.99914789    -0.024005898    1.4987073      16.849024      20.499667      0             -4.4349278      0              0              48.834119      48.834119      48.834119    
    856000   0.99763335    -0.056759247    1.4964355      16.849021      20.498029      0             -4.4343998      0              0              48.834872      48.834872      48.834872    
    857000   0.99791245     0.0095664361   1.4968542      16.850065      20.496811      0             -4.431016       0              0              48.83548       48.83548       48.83548     
    858000   1.0002891     -0.023412345    1.5004191      16.853542      20.496871      0             -4.4295624      0              0              48.835936      48.835936      48.835936    
    859000   1.0024015      0.017466553    1.5035877      16.854963      20.502478      0             -4.4318099      0              0              48.836347      48.836347      48.836347    
    860000   1.0068052     -0.04912663     1.5101932      16.844987      20.497831      0             -4.4354695      0              0              48.836776      48.836776      48.836776    
    861000   0.99742932    -0.015431854    1.4961295      16.850022      20.502042      0             -4.4340547      0              0              48.837128      48.837128      48.837128    
    862000   0.99994413    -0.017076488    1.4999016      16.845129      20.49616       0             -4.4340687      0              0              48.837314      48.837314      48.837314    
    863000   1.0007548     -0.029877808    1.5011176      16.84752       20.496944      0             -4.4321198      0              0              48.837309      48.837309      48.837309    
    864000   1.0013151     -0.005050106    1.5019581      16.852385      20.502025      0             -4.4323793      0              0              48.837197      48.837197      48.837197    
    865000   1.0019701      0.033895884    1.5029406      16.851964      20.500059      0             -4.4309688      0              0              48.836993      48.836993      48.836993    
    866000   0.99543565    -0.059607577    1.493139       16.85204       20.498934      0             -4.4315681      0              0              48.836702      48.836702      48.836702    
    867000   0.99536146    -0.009323548    1.4930277      16.848818      20.499949      0             -4.435521       0              0              48.836275      48.836275      48.836275    
    868000   0.99817058    -0.047278172    1.4972413      16.851454      20.500279      0             -4.4348511      0              0              48.83569       48.83569       48.83569     
    869000   0.99882736    -0.01769469     1.4982265      16.856441      20.502583      0             -4.431784       0              0              48.834965      48.834965      48.834965    
    870000   1.0020074     -0.014858572    1.5029965      16.851872      20.49833       0             -4.4326569      0              0              48.834151      48.834151      48.834151    
    871000   0.99990221    -0.0029072656   1.4998388      16.850793      20.497542      0             -4.4320547      0              0              48.833294      48.833294      48.833294    
    872000   0.9953228     -0.023763383    1.4929697      16.848485      20.497099      0             -4.4319473      0              0              48.83238       48.83238       48.83238     
    873000   0.99551679    -0.034171974    1.4932607      16.848066      20.498078      0             -4.4349631      0              0              48.831299      48.831299      48.831299    
    874000   1.0011419     -0.029689767    1.5016983      16.842833      20.496689      0             -4.436529       0              0              48.830066      48.830066      48.830066    
    875000   0.99965253     0.0028274956   1.4994643      16.846433      20.500057      0             -4.438251       0              0              48.828661      48.828661      48.828661    
    876000   1.0014996      0.018743002    1.5022348      16.847158      20.499497      0             -4.4367005      0              0              48.827205      48.827205      48.827205    
    877000   1.0022422      0.036321253    1.5033487      16.847931      20.500341      0             -4.4352759      0              0              48.82574       48.82574       48.82574     
    878000   0.99863189    -0.011875541    1.4979333      16.845271      20.498838      0             -4.4375353      0              0              48.824282      48.824282      48.824282    
    879000   0.99642946     0.00091053623  1.4946297      16.84331       20.497571      0             -4.4373964      0              0              48.822729      48.822729      48.822729    
    880000   0.99834577     0.042484995    1.4975041      16.843149      20.496643      0             -4.4364619      0              0              48.821056      48.821056      48.821056    
    881000   1.0032394     -0.027953666    1.5048445      16.842273      20.496686      0             -4.4373095      0              0              48.819363      48.819363      48.819363    
    882000   1.0001655      0.031728904    1.5002337      16.848686      20.499014      0             -4.4332652      0              0              48.817653      48.817653      48.817653    
    883000   1.0011877     -0.014770843    1.5017669      16.839626      20.498052      0             -4.4425466      0              0              48.816017      48.816017      48.816017    
    884000   0.9952298     -0.017513251    1.4928302      16.841059      20.495809      0             -4.4415206      0              0              48.814399      48.814399      48.814399    
    885000   0.99809715     0.030645968    1.4971312      16.841572      20.495666      0             -4.4402427      0              0              48.812656      48.812656      48.812656    
    886000   1.001626       0.012685541    1.5024245      16.84234       20.498468      0             -4.4395369      0              0              48.81083       48.81083       48.81083     
    887000   1.0009857      0.056885108    1.501464       16.843628      20.499002      0             -4.4386257      0              0              48.809047      48.809047      48.809047    
    888000   1.0013308      0.031464434    1.5019816      16.837424      20.49641       0             -4.4420454      0              0              48.807354      48.807354      48.807354    
    889000   0.99677675    -0.012868936    1.4951506      16.83516       20.496449      0             -4.4459248      0              0              48.805683      48.805683      48.805683    
    890000   0.99439263     0.02168178     1.4915745      16.841219      20.500399      0             -4.4441532      0              0              48.803975      48.803975      48.803975    
    891000   1.0001869     -0.017769887    1.5002658      16.837874      20.497951      0             -4.4445756      0              0              48.802229      48.802229      48.802229    
    892000   1.0018347      0.015803986    1.5027375      16.838508      20.49919       0             -4.4459509      0              0              48.800527      48.800527      48.800527    
    893000   1.0032045     -0.011662336    1.5047921      16.836919      20.496097      0             -4.4459623      0              0              48.798953      48.798953      48.798953    
    894000   0.99997725     0.038684171    1.4999513      16.836736      20.498525      0             -4.4473242      0              0              48.797473      48.797473      48.797473    
    895000   0.99714727    -0.0073829328   1.4957064      16.833552      20.493676      0             -4.4451348      0              0              48.7961        48.7961        48.7961      
    896000   1.0002517     -0.04856792     1.500363       16.831149      20.496119      0             -4.4488648      0              0              48.794763      48.794763      48.794763    
    897000   1.0020419      0.059279324    1.5030483      16.836434      20.496545      0             -4.4434565      0              0              48.7935        48.7935        48.7935      
    898000   1.0011601      0.026428841    1.5017256      16.839446      20.500026      0             -4.4463917      0              0              48.792386      48.792386      48.792386    
    899000   1.001681       0.068069241    1.502507       16.837435      20.496563      0             -4.4446374      0              0              48.79145       48.79145       48.79145     
    900000   0.99936712    -0.044747585    1.4990361      16.838688      20.502408      0             -4.4506984      0              0              48.790642      48.790642      48.790642    
    901000   0.99866512    -5.3590455e-05  1.4979832      16.838687      20.504059      0             -4.4518644      0              0              48.789897      48.789897      48.789897    
    902000   1.000203       0.038303226    1.5002899      16.835726      20.501526      0             -4.449625       0              0              48.789276      48.789276      48.789276    
    903000   0.99807236    -0.007003252    1.497094       16.829246      20.498711      0             -4.4544794      0              0              48.7888        48.7888        48.7888      
    904000   0.99327226    -0.017502836    1.4898939      16.834484      20.499971      0             -4.4500911      0              0              48.788366      48.788366      48.788366    
    905000   1.0001016      0.0010787625   1.5001379      16.833148      20.496777      0             -4.4483966      0              0              48.788019      48.788019      48.788019    
    906000   1.0009064      0.017955071    1.501345       16.835548      20.501499      0             -4.4488796      0              0              48.787766      48.787766      48.787766    
    907000   1.000259       0.030967613    1.500374       16.83545       20.500214      0             -4.4475267      0              0              48.787702      48.787702      48.787702    
    908000   1.0024371      0.041378087    1.5036411      16.824701      20.495882      0             -4.453096       0              0              48.787832      48.787832      48.787832    
    909000   0.99458542     0.032806085    1.4918637      16.83299       20.495652      0             -4.4470121      0              0              48.788077      48.788077      48.788077    
    910000   0.99777641     0.053485945    1.4966501      16.834052      20.497181      0             -4.4475217      0              0              48.788421      48.788421      48.788421    
    911000   1.0000472      0.036084063    1.5000563      16.833717      20.499307      0             -4.4502068      0              0              48.788936      48.788936      48.788936    
    912000   1.0013902      0.021035455    1.5020707      16.83424       20.499424      0             -4.4473031      0              0              48.789631      48.789631      48.789631    
    913000   1.0039117     -0.0091947275   1.5058529      16.832919      20.496478      0             -4.4466895      0              0              48.790541      48.790541      48.790541    
    914000   0.99841895     0.044364841    1.4976139      16.839057      20.499763      0             -4.4446872      0              0              48.791616      48.791616      48.791616    
    915000   0.99836151     0.0094248653   1.4975277      16.830693      20.49809       0             -4.4502863      0              0              48.792804      48.792804      48.792804    
    916000   0.99874707    -0.02319499     1.4981061      16.830486      20.492347      0             -4.4458297      0              0              48.794079      48.794079      48.794079    
    917000   0.99984271     0.033664643    1.4997495      16.836387      20.49797       0             -4.4465871      0              0              48.795458      48.795458      48.795458    
    918000   0.99788009     0.019639817    1.4968056      16.842696      20.500824      0             -4.4427849      0              0              48.797013      48.797013      48.797013    
    919000   0.9985074      0.0025724813   1.4977466      16.842364      20.498604      0             -4.4420176      0              0              48.798703      48.798703      48.798703    
    920000   0.99903882     0.0048593524   1.4985437      16.840877      20.49917       0             -4.445199       0              0              48.800476      48.800476      48.800476    
    921000   1.000754       0.0032359501   1.5011165      16.835742      20.497326      0             -4.4476544      0              0              48.802341      48.802341      48.802341    
    922000   0.99713865     0.039527148    1.4956935      16.839906      20.498273      0             -4.4430769      0              0              48.804256      48.804256      48.804256    
    923000   0.99650197     0.0092896588   1.4947385      16.847269      20.500472      0             -4.4387474      0              0              48.806249      48.806249      48.806249    
    924000   1.0004213      0.038823137    1.5006174      16.847935      20.504464      0             -4.4414204      0              0              48.808358      48.808358      48.808358    
    925000   0.99856312     0.010460406    1.4978302      16.851052      20.501844      0             -4.4370064      0              0              48.810621      48.810621      48.810621    
    926000   1.0007259     -0.0068462449   1.5010743      16.841994      20.498         0             -4.4399895      0              0              48.812994      48.812994      48.812994    
    927000   0.99784042    -0.061580205    1.4967461      16.839839      20.497483      0             -4.4457938      0              0              48.815392      48.815392      48.815392    
    928000   0.99524911     0.026731358    1.4928592      16.847204      20.497308      0             -4.4385906      0              0              48.817736      48.817736      48.817736    
    929000   0.99796591    -0.024751633    1.4969344      16.848185      20.501303      0             -4.4382434      0              0              48.82003       48.82003       48.82003     
    930000   0.99966741     0.015229255    1.4994866      16.850251      20.499748      0             -4.4367267      0              0              48.822245      48.822245      48.822245    
    931000   1.0039975     -0.0015563397   1.5059816      16.847613      20.498448      0             -4.4358244      0              0              48.824462      48.824462      48.824462    
    932000   0.99954407     0.0032226805   1.4993016      16.852293      20.49981       0             -4.4353933      0              0              48.826746      48.826746      48.826746    
    933000   0.99438891    -0.033692899    1.4915689      16.850171      20.500512      0             -4.4359749      0              0              48.829015      48.829015      48.829015    
    934000   0.99869513    -0.030617644    1.4980282      16.844641      20.497616      0             -4.4365803      0              0              48.831163      48.831163      48.831163    
    935000   0.99810641     0.0023417358   1.4971451      16.851026      20.499456      0             -4.4330984      0              0              48.83317       48.83317       48.83317     
    936000   1.0004886     -0.048676536    1.5007183      16.850408      20.499462      0             -4.4350414      0              0              48.83513       48.83513       48.83513     
    937000   1.0004241     -0.015492848    1.5006215      16.85102       20.496825      0             -4.4303043      0              0              48.837044      48.837044      48.837044    
    938000   0.99876662    -0.050946989    1.4981354      16.853297      20.500441      0             -4.4327542      0              0              48.838833      48.838833      48.838833    
    939000   1.0021978     -0.026618816    1.5032822      16.846912      20.496085      0             -4.433878       0              0              48.84042       48.84042       48.84042     
    940000   0.99659928    -0.073414278    1.4948844      16.84996       20.500684      0             -4.4351182      0              0              48.841865      48.841865      48.841865    
    941000   0.99436546    -0.067937277    1.4915337      16.850411      20.500145      0             -4.4332799      0              0              48.843083      48.843083      48.843083    
    942000   0.99682212    -0.041000719    1.4952187      16.853773      20.503667      0             -4.4308115      0              0              48.843994      48.843994      48.843994    
    943000   1.0023644     -0.086715638    1.5035321      16.851257      20.499585      0             -4.4314076      0              0              48.844733      48.844733      48.844733    
    944000   1.0019134     -0.041951391    1.5028556      16.850983      20.498655      0             -4.4308131      0              0              48.845309      48.845309      48.845309    
    945000   1.0006898     -0.035704913    1.5010202      16.849         20.499192      0             -4.433479       0              0              48.845759      48.845759      48.845759    
    946000   0.99794914    -0.031008728    1.4969092      16.845301      20.495177      0             -4.4323893      0              0              48.846017      48.846017      48.846017    
    947000   0.99619451    -0.030247986    1.4942773      16.844017      20.494285      0             -4.4336541      0              0              48.846082      48.846082      48.846082    
    948000   1.0018468     -0.070800813    1.5027557      16.846976      20.498638      0             -4.4370317      0              0              48.845925      48.845925      48.845925    
    949000   0.99846486     0.013951712    1.4976828      16.856844      20.496703      0             -4.4250727      0              0              48.845603      48.845603      48.845603    
    950000   1.0009266     -0.015422745    1.5013754      16.856847      20.501283      0             -4.4289967      0              0              48.845237      48.845237      48.845237    
    951000   1.0010617     -0.006270581    1.5015779      16.85534       20.500367      0             -4.4310146      0              0              48.844728      48.844728      48.844728    
    952000   0.998923      -0.017267966    1.49837        16.850935      20.495913      0             -4.4299902      0              0              48.84408       48.84408       48.84408     
    953000   0.99826372    -0.04939391     1.4973811      16.850005      20.495289      0             -4.4301503      0              0              48.843289      48.843289      48.843289    
    954000   0.9995522     -0.056890273    1.4993138      16.853992      20.500293      0             -4.4321656      0              0              48.842285      48.842285      48.842285    
    955000   1.002218      -0.040416463    1.5033125      16.855338      20.500378      0             -4.4319338      0              0              48.841186      48.841186      48.841186    
    956000   1.0016965     -0.049767524    1.5025301      16.854353      20.500545      0             -4.4338473      0              0              48.840031      48.840031      48.840031    
    957000   0.99970178    -0.044996584    1.4995381      16.852591      20.496148      0             -4.4294254      0              0              48.838777      48.838777      48.838777    
    958000   0.99892024     0.020549021    1.4983658      16.849461      20.496277      0             -4.4306133      0              0              48.837447      48.837447      48.837447    
    959000   1.0000686     -0.022176556    1.5000883      16.847241      20.496321      0             -4.4337398      0              0              48.836057      48.836057      48.836057    
    960000   1.0028713     -0.02352068     1.5042923      16.848094      20.498173      0             -4.4349365      0              0              48.834579      48.834579      48.834579    
    961000   1.0033419     -0.027730458    1.5049983      16.853687      20.499666      0             -4.4313125      0              0              48.833042      48.833042      48.833042    
    962000   0.99830012     0.02160292     1.4974357      16.859224      20.500592      0             -4.4275924      0              0              48.831501      48.831501      48.831501    
    963000   0.99638062    -0.053849374    1.4945564      16.852304      20.500186      0             -4.4343469      0              0              48.830033      48.830033      48.830033    
    964000   0.9971271     -0.0049323416   1.4956761      16.850055      20.501965      0             -4.4371576      0              0              48.828499      48.828499      48.828499    
    965000   1.0016098     -0.04227574     1.5024002      16.846494      20.498463      0             -4.4357256      0              0              48.826891      48.826891      48.826891    
    966000   1.0001552      0.017752611    1.5002183      16.849225      20.505211      0             -4.4378149      0              0              48.825243      48.825243      48.825243    
    967000   0.99791439    -0.042619588    1.4968571      16.845471      20.502845      0             -4.4395812      0              0              48.823553      48.823553      48.823553    
    968000   0.99549496    -0.02134307     1.493228       16.842457      20.498858      0             -4.4403286      0              0              48.82175       48.82175       48.82175     
    969000   0.99887296    -0.010630434    1.4982949      16.842415      20.497414      0             -4.439372       0              0              48.819867      48.819867      48.819867    
    970000   1.0010429      0.0041489341   1.5015498      16.844109      20.498851      0             -4.4393845      0              0              48.817941      48.817941      48.817941    
    971000   1.0036048     -0.00070983285  1.5053926      16.841656      20.49819       0             -4.4420562      0              0              48.816047      48.816047      48.816047    
    972000   1.0018984     -0.0048554006   1.502833       16.842753      20.498402      0             -4.4412776      0              0              48.814202      48.814202      48.814202    
    973000   0.99831023    -0.047262267    1.4974508      16.839144      20.501826      0             -4.4459711      0              0              48.812374      48.812374      48.812374    
    974000   0.99714046     0.0030842454   1.4956962      16.837197      20.496075      0             -4.4431959      0              0              48.810511      48.810511      48.810511    
    975000   0.9984819     -0.0031585991   1.4977083      16.839641      20.495123      0             -4.4401915      0              0              48.808652      48.808652      48.808652    
    976000   1.0024085      0.0095839018   1.5035981      16.838148      20.496597      0             -4.4439898      0              0              48.806857      48.806857      48.806857    
    977000   0.99745945    -0.012893304    1.4961747      16.847234      20.503242      0             -4.4412487      0              0              48.805148      48.805148      48.805148    
    978000   0.99955503     0.05009918     1.499318       16.843276      20.499161      0             -4.4420023      0              0              48.803483      48.803483      48.803483    
    979000   0.99767995    -0.0200804      1.4965054      16.840477      20.50025       0             -4.4450615      0              0              48.801935      48.801935      48.801935    
    980000   0.99665001     0.025016942    1.4949605      16.836155      20.497419      0             -4.4457321      0              0              48.800442      48.800442      48.800442    
    981000   0.99571041     0.025784638    1.4935511      16.841568      20.500005      0             -4.4434887      0              0              48.798997      48.798997      48.798997    
    982000   1.0013093      0.022963731    1.5019494      16.840721      20.496199      0             -4.4410443      0              0              48.797648      48.797648      48.797648    
    983000   1.0018806      0.062089108    1.5028063      16.84021       20.498173      0             -4.4444129      0              0              48.796426      48.796426      48.796426    
    984000   0.99935572     0.047107625    1.499019       16.841598      20.50075       0             -4.4452792      0              0              48.795421      48.795421      48.795421    
    985000   1.0016008      0.029738754    1.5023867      16.834047      20.499548      0             -4.4485306      0              0              48.79458       48.79458       48.79458     
    986000   0.99688768    -0.0070166968   1.495317       16.832803      20.495869      0             -4.4468019      0              0              48.793799      48.793799      48.793799    
    987000   0.99983343     0.032031298    1.4997356      16.829467      20.498627      0             -4.4530259      0              0              48.793023      48.793023      48.793023    
    988000   0.9989722      0.062316003    1.4984438      16.840406      20.501165      0             -4.4458952      0              0              48.79232       48.79232       48.79232     
    989000   0.99909921    -0.00053841986  1.4986343      16.840898      20.502524      0             -4.4455678      0              0              48.791788      48.791788      48.791788    
    990000   1.0021053     -0.050127772    1.5031433      16.83356       20.498938      0             -4.4501678      0              0              48.791405      48.791405      48.791405    
    991000   0.99617238    -0.0088138778   1.4942441      16.839051      20.50147       0             -4.4475017      0              0              48.791168      48.791168      48.791168    
    992000   0.99795675     0.036511841    1.4969206      16.834817      20.495653      0             -4.4456671      0              0              48.791044      48.791044      48.791044    
    993000   0.99940708    -0.0058125908   1.4990961      16.835691      20.495376      0             -4.4468913      0              0              48.791038      48.791038      48.791038    
    994000   1.0007678      0.04017333     1.5011372      16.840476      20.503609      0             -4.4482476      0              0              48.791144      48.791144      48.791144    
    995000   0.99858919     0.026116399    1.4978693      16.844131      20.505624      0             -4.4477824      0              0              48.791397      48.791397      48.791397    
    996000   1.0001376     -0.010876741    1.5001918      16.835766      20.498661      0             -4.4496572      0              0              48.791789      48.791789      48.791789    
    997000   0.99715909     0.056745625    1.4957241      16.833457      20.498829      0             -4.4517952      0              0              48.792285      48.792285      48.792285    
    998000   0.9964731     -0.0094625465   1.4946951      16.838176      20.497205      0             -4.4448607      0              0              48.792862      48.792862      48.792862    
    999000   1.0011586      0.047153535    1.5017234      16.838106      20.499994      0             -4.4466825      0              0              48.793514      48.793514      48.793514    
   1000000   0.99871163     0.044819028    1.4980529      16.841905      20.498738      0             -4.4415638      0              0              48.794277      48.794277      48.794277    
   1001000   0.99791148    -0.014948368    1.4968527      16.840515      20.500131      0             -4.444206       0              0              48.795169      48.795169      48.795169    
   1001390   0.99737176     0.019511444    1.4960431      16.839698      20.501133      0             -4.4469804      0              0              48.795536      48.795536      48.795536    
Loop time of 44907.8 on 1 procs for 1001390 steps with 103098 atoms

Performance: 1926.615 tau/day, 22.299 timesteps/s, 2.299 Matom-step/s
99.9% CPU use with 1 MPI tasks x no OpenMP threads

MPI task timing breakdown:
Section |  min time  |  avg time  |  max time  |%varavg| %total
---------------------------------------------------------------
Pair    | 33705      | 33705      | 33705      |   0.0 | 75.05
Bond    | 4602.9     | 4602.9     | 4602.9     |   0.0 | 10.25
Neigh   | 3687.4     | 3687.4     | 3687.4     |   0.0 |  8.21
Comm    | 272.92     | 272.92     | 272.92     |   0.0 |  0.61
Output  | 2.2811     | 2.2811     | 2.2811     |   0.0 |  0.01
Modify  | 2315       | 2315       | 2315       |   0.0 |  5.16
Other   |            | 322.1      |            |       |  0.72

Nlocal:         103098 ave      103098 max      103098 min
Histogram: 1 0 0 0 0 0 0 0 0 0
Nghost:          39733 ave       39733 max       39733 min
Histogram: 1 0 0 0 0 0 0 0 0 0
Neighs:    4.03755e+06 ave 4.03755e+06 max 4.03755e+06 min
Histogram: 1 0 0 0 0 0 0 0 0 0

Total # of neighbors = 4037548
Ave neighs/atom = 39.162234
Ave special neighs/atom = 1.980601
Neighbor list builds = 33186
Dangerous builds = 0
Total wall time: 19:15:32
